 vasp.6.3.2 27Jun22 (build Apr 27 2024 20:17:35) complex

 executed on             LinuxIFC date 2024.09.30  12:57:44

 INCAR:
   SYSTEM = IrO2-110
   ENCUT = 500
   ALGO = Normal
   NELMIN = 6
   NELM = 300
   NELMDL = -8
   EDIFF = 1.0E-5
   LREAL = AUTO
   AMIN = 0.01
   PREC = Accurate
   ISPIN = 2
   NGX = 108
   NGY = 72
   NGZ = 640
   ADDGRID = .TRUE.
   LASPH = .TRUE.
   NSW = 0
   EDIFFG = -0.025
   IBRION = 2
   ISIF = 0
   POTIM = 0.50
   ISMEAR = 0
   SIGMA = 0.0500
   LORBIT = 10
   NEDOS = 6001
   NWRITE = 1
   LWAVE = .FALSE.
   LCHARG = .TRUE.
   LAECHG = .TRUE.
   NCORE = 5
   LPLANE = .TRUE.

 POTCAR:    PAW_PBE Ir_sv_GW 23Mar2010
 POTCAR:    PAW_PBE O_GW_new 19Mar2012
|           W    W    AA    RRRRR   N    N  II  N    N   GGGG   !!!           |
|           W    W   A  A   R    R  NN   N  II  NN   N  G    G  !!!           |
|           W    W  A    A  R    R  N N  N  II  N N  N  G       !!!           |
|           W WW W  AAAAAA  RRRRR   N  N N  II  N  N N  G  GGG   !            |
|           WW  WW  A    A  R   R   N   NN  II  N   NN  G    G                |
|           W    W  A    A  R    R  N    N  II  N    N   GGGG   !!!           |
|     You use a magnetic or noncollinear calculation, but did not specify     |
|     the initial magnetic moment with the MAGMOM tag. Note that a            |
|     default of 1 will be used for all atoms. This ferromagnetic setup       |
|     may break the symmetry of the crystal, in particular it may rule        |
|     out finding an antiferromagnetic solution. Thence, we recommend         |
|     setting the initial magnetic moment manually or verifying carefully     |
|     that this magnetic setup is desired.                                    |

 POTCAR:    PAW_PBE Ir_sv_GW 23Mar2010

 POTCAR:    PAW_PBE O_GW_new 19Mar2012

 Optimization of the real space projectors (new method)

 maximal supplied QI-value         = 16.25
 optimisation between [QCUT,QGAM] = [ 11.38, 22.75] = [ 36.24,144.96] Ry
 Optimized for a Real-space Cutoff    1.56 Angstroem

   l    n(q)    QCUT    max X(q) W(low)/X(q) W(high)/X(q)  e(spline)
   0     11    11.376   331.533    0.45E-04    0.10E-03    0.18E-05
   0     11    11.376   348.190    0.46E-04    0.10E-03    0.18E-05
   0     11    11.376     6.927    0.35E-04    0.83E-04    0.16E-05
   1     10    11.376     2.497    0.49E-05    0.43E-05    0.65E-07
   1     10    11.376     2.823    0.91E-05    0.21E-04    0.27E-06
   2     10    11.376    64.269    0.20E-03    0.53E-03    0.84E-06
   2     10    11.376    59.672    0.20E-03    0.54E-03    0.85E-06
   3      9    11.376     4.004    0.24E-03    0.21E-03    0.44E-06
 Optimization of the real space projectors (new method)

 maximal supplied QI-value         = 23.62
 optimisation between [QCUT,QGAM] = [ 11.34, 22.68] = [ 36.00,144.00] Ry
 Optimized for a Real-space Cutoff    1.66 Angstroem

   l    n(q)    QCUT    max X(q) W(low)/X(q) W(high)/X(q)  e(spline)
   0     11    11.338   116.464    0.17E-03    0.30E-03    0.79E-05
   0     11    11.338   116.329    0.16E-03    0.29E-03    0.76E-05
   0     11    11.338     0.942    0.79E-04    0.14E-03    0.33E-05
   1     11    11.338    54.336    0.24E-03    0.89E-03    0.12E-04
   1     11    11.338    48.242    0.24E-03    0.87E-03    0.12E-04
   1     11    11.338     2.381    0.18E-03    0.63E-03    0.86E-05
   2     10    11.338     2.237    0.15E-04    0.16E-04    0.66E-06
   2     10    11.338     2.457    0.37E-04    0.22E-04    0.97E-06
  PAW_PBE Ir_sv_GW 23Mar2010            :
  PAW_PBE O_GW_new 19Mar2012            :

 POSCAR: Ir36 O78
  positions in direct lattice
  velocities in cartesian coordinates
 exchange correlation table for  LEXCH =        8
   RHO(1)=    0.500       N(1)  =     2000
   RHO(2)=  100.500       N(2)  =     4000

 POSCAR: Ir36 O78
  positions in direct lattice
  velocities in cartesian coordinates

 POSCAR: Ir36 O78
  positions in direct lattice
  velocities in cartesian coordinates

 ion  position               nearest neighbor table
   1  0.167  0.750  0.158-  37 1.97  38 1.97  40 1.98  46 1.98  43 2.02  44 2.02   3 3.18   2 3.18

   2  0.500  0.750  0.158-  38 1.97  39 1.97  41 1.98  47 1.98  45 2.02  44 2.02   1 3.18   3 3.18

[...]

  37  0.000  0.750  0.137-   3 1.97   1 1.97
  38  0.333  0.750  0.137-   2 1.97   1 1.97
  39  0.667  0.750  0.137-   2 1.97   3 1.97
  40  0.167  0.059  0.159-   1 1.98   4 2.01   5 2.01
  41  0.500  0.059  0.159-   2 1.98   5 2.01   6 2.01
  42  0.833  0.059  0.159-   3 1.98   4 2.01   6 2.01
  43  0.000  0.750  0.180-  10 1.96   3 2.02   1 2.02
  44  0.333  0.750  0.180-  11 1.96   2 2.02   1 2.02
  45  0.667  0.750  0.180-  12 1.96   2 2.02   3 2.02
  46  0.167  0.441  0.159-   1 1.98   4 2.01   5 2.01
  47  0.500  0.441  0.159-   2 1.98   5 2.01   6 2.01
  48  0.833  0.441  0.159-   3 1.98   4 2.01   6 2.01
  49  0.000  0.250  0.193-   7 2.01   9 2.01   4 2.06
  50  0.333  0.250  0.193-   8 2.01   7 2.01   5 2.06
  51  0.667  0.250  0.193-   8 2.01   9 2.01   6 2.06
  52  0.167  0.558  0.215-   7 1.97  10 2.01  11 2.01
  53  0.500  0.558  0.215-   8 1.97  11 2.01  12 2.01
  54  0.833  0.558  0.215-   9 1.97  10 2.01  12 2.01
  55  0.000  0.250  0.236-  16 1.98   9 2.01   7 2.01
  56  0.333  0.250  0.236-  17 1.98   8 2.01   7 2.01
  57  0.667  0.250  0.236-  18 1.98   8 2.01   9 2.01
  58  0.167  0.942  0.215-   7 1.97  10 2.01  11 2.01
  59  0.500  0.942  0.215-   8 1.97  11 2.01  12 2.01
  60  0.833  0.942  0.215-   9 1.97  10 2.01  12 2.01
  61  0.000  0.750  0.250-  10 1.99  13 2.01  15 2.01
  62  0.333  0.750  0.250-  11 1.99  14 2.01  13 2.01
  63  0.667  0.750  0.250-  12 1.99  14 2.01  15 2.01
  64  0.167  0.058  0.271-  13 1.97  16 2.01  17 2.01
  65  0.500  0.058  0.271-  14 1.97  17 2.01  18 2.01
  66  0.833  0.058  0.271-  15 1.97  16 2.01  18 2.01
  67  0.000  0.750  0.293-  22 1.97  15 2.01  13 2.01
  68  0.333  0.750  0.293-  23 1.97  14 2.01  13 2.01
  69  0.667  0.750  0.293-  24 1.97  14 2.01  15 2.01
  70  0.167  0.442  0.271-  13 1.97  16 2.01  17 2.01
  71  0.500  0.442  0.271-  14 1.97  18 2.01  17 2.01
  72  0.833  0.442  0.271-  15 1.97  16 2.01  18 2.01
  73  0.000  0.250  0.306-  16 1.97  19 2.01  21 2.01
  74  0.333  0.250  0.306-  17 1.97  20 2.01  19 2.01
  75  0.667  0.250  0.306-  18 1.97  20 2.01  21 2.01
  76  0.167  0.558  0.328-  19 1.97  22 2.01  23 2.01
  77  0.500  0.558  0.328-  20 1.97  23 2.01  24 2.01
  78  0.833  0.558  0.328-  21 1.97  22 2.01  24 2.01
  79  0.000  0.250  0.350-  28 1.99  21 2.01  19 2.01
  80  0.333  0.250  0.350-  29 1.99  20 2.01  19 2.01
  81  0.667  0.250  0.350-  30 1.99  20 2.01  21 2.01
  82  0.167  0.942  0.328-  19 1.97  22 2.01  23 2.01
  83  0.500  0.942  0.328-  20 1.97  24 2.01  23 2.01
  84  0.833  0.942  0.328-  21 1.97  22 2.01  24 2.01
  85  0.000  0.750  0.363-  22 1.98  27 2.01  25 2.01
  86  0.333  0.750  0.363-  23 1.98  26 2.01  25 2.01
  87  0.667  0.750  0.363-  24 1.98  26 2.01  27 2.01
  88  0.167  0.058  0.385-  25 1.97  28 2.01  29 2.01
  89  0.500  0.058  0.385-  26 1.97  29 2.01  30 2.01
  90  0.833  0.058  0.385-  27 1.97  28 2.01  30 2.01
  91  0.000  0.750  0.407-  25 2.01  27 2.01  34 2.06
  92  0.333  0.750  0.407-  26 2.01  25 2.01  35 2.06
  93  0.667  0.750  0.407-  26 2.01  27 2.01  36 2.06
  94  0.167  0.442  0.385-  25 1.97  28 2.01  29 2.01
  95  0.500  0.442  0.385-  26 1.97  29 2.01  30 2.01
  96  0.833  0.442  0.385-  27 1.97  28 2.01  30 2.01
[...]
 100  0.167  0.559  0.441-  31 1.98  34 2.01  35 2.01
 101  0.500  0.559  0.441-  32 1.98  35 2.01  36 2.01
 102  0.833  0.559  0.441-  33 1.98  34 2.01  36 2.01
 103  0.000  0.250  0.462-  31 1.97  33 1.97
 104  0.333  0.250  0.462-  32 1.97  31 1.97
 105  0.667  0.250  0.462-  32 1.97  33 1.97
 106  0.167  0.941  0.441-  31 1.98  34 2.01  35 2.01
 107  0.500  0.941  0.441-  32 1.98  35 2.01  36 2.01
 108  0.833  0.941  0.441-  33 1.98  34 2.01  36 2.01
 109  0.000  0.250  0.125-   4 1.77
 110  0.000  0.750  0.474-  34 1.77
 111  0.333  0.250  0.125-   5 1.77
 112  0.667  0.750  0.474-  36 1.77
 113  0.667  0.250  0.125-   6 1.77
 114  0.333  0.750  0.474-  35 1.77

  LATTYP: Found a simple orthorhombic cell.
 ALAT       =     6.4022918039
 B/A-ratio  =     1.4889259653
 C/A-ratio  =     8.8429110168

  Lattice vectors:

 A1 = (  -0.0000000000,  -6.4022918039,   0.0000000000)
 A2 = (   9.5325385041,   0.0000000000,   0.0000000000)
 A3 = (   0.0000000000,   0.0000000000,  56.6148967251)

Analysis of symmetry for initial positions (statically):
 Subroutine PRICEL returns following result:

[...]

   3 primitive cells build up your supercell.

 Routine SETGRP: Setting up the symmetry group for a
 simple orthorhombic supercell.

 Subroutine GETGRP returns: Found  8 space group operations
 (whereof  2 operations were pure point group operations)
 out of a pool of  8 trial point group operations.

The static configuration has the point symmetry C_1h.
 The point group associated with its full space group is D_2h.

Analysis of symmetry for dynamics (positions and initial velocities):
 Subroutine PRICEL returns following result:

[...]

The dynamic configuration has the point symmetry C_1h.
 The point group associated with its full space group is D_2h.

Analysis of constrained symmetry for selective dynamics:
 Subroutine PRICEL returns following result:

[...]

The constrained configuration has the point symmetry C_1h.
 The point group associated with its full space group is D_2h.

Analysis of structural, dynamic, and magnetic symmetry:
 Subroutine PRICEL returns following result:

  LATTYP: Found a simple orthorhombic cell.
 ALAT       =     3.1775128347
 B/A-ratio  =     2.0148751986
 C/A-ratio  =    17.8173620912

  Lattice vectors:

 A1 = (   3.1775128347,   0.0000000000,   0.0000000000)
 A2 = (   0.0000000000,   6.4022918039,   0.0000000000)
 A3 = (   0.0000000000,   0.0000000000,  56.6148967251)

   3 primitive cells build up your supercell.

 Routine SETGRP: Setting up the symmetry group for a
 simple orthorhombic supercell.

 Subroutine GETGRP returns: Found  8 space group operations
 (whereof  2 operations were pure point group operations)
 out of a pool of  8 trial point group operations.

The overall configuration has the point symmetry C_1h.
 The point group associated with its full space group is D_2h.

 Subroutine INISYM returns: Found  8 space group operations
 (whereof  2 operations are pure point group operations),
 and found     3 'primitive' translations

                                     Primitive cell

  volume of cell :    1151.7375

  direct lattice vectors                    reciprocal lattice vectors
     3.177512835  0.000000000  0.000000000     0.314711553 -0.000000000  0.000000000
     0.000000000  6.402291804  0.000000000     0.000000000  0.156194068  0.000000000
     0.000000000  0.000000000 56.614896725    -0.000000000 -0.000000000  0.017663196

  length of vectors
     3.177512835  6.402291804 56.614896725     0.314711553  0.156194068  0.017663196

  position of ions in fractional coordinates (direct lattice)
     0.500000000  0.750000000  0.158008999
     0.000000000  0.250000000  0.156398042
     0.500000000  0.250000000  0.214665407
[...]
   -.103E-09 -.212E-11 -.852E+04   -.202E-09 -.647E-12 0.852E+04   0.967E-25 0.246E-24 -.336E+00   -.310E-12 0.512E-13 -.298E-02
   0.102E-09 0.119E-10 -.852E+04   0.202E-09 -.371E-12 0.852E+04   0.244E-24 0.189E-24 -.336E+00   0.198E-12 0.909E-13 -.298E-02
   0.106E-09 0.350E-11 -.142E+05   0.197E-09 -.127E-11 0.142E+05   0.211E-23 0.141E-24 -.213E+01   -.742E-12 0.776E-13 -.446E-02
   0.483E-12 0.442E-11 -.142E+05   -.109E-11 -.953E-12 0.142E+05   -.473E-24 -.572E-24 -.213E+01   0.792E-12 0.377E-13 -.446E-02
   -.983E-10 -.135E-10 -.142E+05   -.199E-09 -.571E-12 0.142E+05   -.129E-23 -.104E-23 -.213E+01   -.376E-13 0.211E-13 -.446E-02
   0.196E-11 0.381E-11 -.142E+05   -.583E-12 -.859E-12 0.142E+05   0.191E-24 -.563E-23 -.319E+01   -.430E-12 0.303E-13 -.463E-02
   -.104E-09 -.998E-12 -.142E+05   -.203E-09 -.636E-12 0.142E+05   -.157E-24 -.598E-24 -.319E+01   -.266E-12 0.412E-13 -.463E-02
   0.103E-09 0.145E-10 -.142E+05   0.202E-09 -.121E-11 0.142E+05   -.329E-24 0.310E-23 -.319E+01   0.873E-12 0.583E-13 -.463E-02
   -.614E-12 -.642E-11 0.588E+04   0.651E-12 0.378E-12 -.592E+04   0.680E-26 -.232E-24 0.386E+02   0.564E-12 0.502E-13 0.157E-02
   -.278E-10 -.771E-11 0.588E+04   -.764E-10 0.339E-12 -.592E+04   0.316E-24 -.640E-24 0.386E+02   0.956E-13 0.528E-13 0.157E-02
   0.269E-10 -.233E-11 0.588E+04   0.772E-10 0.348E-12 -.592E+04   0.371E-24 0.365E-24 0.386E+02   -.814E-12 0.532E-13 0.157E-02
   0.286E-10 0.579E+02 0.496E+04   0.778E-10 -.606E+02 -.495E+04   0.433E-15 0.277E+01 -.423E+01   0.158E-12 0.160E-03 0.159E-02
   -.262E-12 0.579E+02 0.496E+04   0.289E-10 -.606E+02 -.495E+04   0.433E-15 0.277E+01 -.423E+01   -.640E-12 0.160E-03 0.159E-02
   -.269E-10 0.579E+02 0.496E+04   -.106E-09 -.606E+02 -.495E+04   0.433E-15 0.277E+01 -.423E+01   0.297E-12 0.160E-03 0.159E-02
   -.169E-12 -.512E-12 0.419E+04   -.836E-11 -.298E-10 -.419E+04   -.132E-23 0.807E-24 0.164E+01   0.669E-12 0.143E-13 0.156E-02
   -.298E-10 -.135E-11 0.419E+04   -.708E-10 -.298E-10 -.419E+04   -.184E-24 0.796E-24 0.164E+01   0.154E-13 0.228E-13 0.156E-02
   0.284E-10 0.500E-12 0.419E+04   0.800E-10 -.300E-10 -.419E+04   0.885E-24 0.850E-24 0.164E+01   -.655E-12 0.216E-13 0.156E-02
   0.288E-10 -.579E+02 0.496E+04   0.775E-10 0.606E+02 -.495E+04   -.433E-15 -.277E+01 -.423E+01   0.233E-12 -.160E-03 0.159E-02
   -.208E-13 -.579E+02 0.496E+04   0.285E-10 0.606E+02 -.495E+04   -.433E-15 -.277E+01 -.423E+01   -.558E-12 -.160E-03 0.159E-02
   -.267E-10 -.579E+02 0.496E+04   -.106E-09 0.606E+02 -.495E+04   -.434E-15 -.277E+01 -.423E+01   0.382E-12 -.160E-03 0.159E-02
   -.212E-14 -.154E-11 0.385E+04   -.316E-11 0.202E-12 -.386E+04   -.213E-24 -.471E-24 0.923E+01   0.126E-12 0.917E-13 0.131E-02
   -.290E-10 -.275E-11 0.385E+04   -.770E-10 0.212E-12 -.386E+04   0.261E-25 -.590E-24 0.923E+01   -.446E-12 0.867E-13 0.131E-02
   0.280E-10 -.492E-11 0.385E+04   0.803E-10 0.125E-12 -.386E+04   0.376E-24 -.921E-24 0.923E+01   0.129E-12 0.972E-13 0.131E-02
   0.290E-10 0.507E+02 0.301E+04   0.811E-10 -.525E+02 -.300E+04   0.286E-15 0.183E+01 -.217E+00   -.194E-13 -.425E-04 0.102E-02
   0.376E-12 0.507E+02 0.301E+04   0.356E-11 -.525E+02 -.300E+04   0.285E-15 0.183E+01 -.217E+00   -.718E-12 -.425E-04 0.102E-02
   -.275E-10 0.507E+02 0.301E+04   -.840E-10 -.525E+02 -.300E+04   0.286E-15 0.183E+01 -.217E+00   0.620E-12 -.425E-04 0.102E-02
   -.293E-13 0.398E-11 0.219E+04   -.786E-12 0.171E-12 -.219E+04   -.580E-24 0.202E-24 -.140E+01   0.110E-12 0.669E-13 0.649E-03
   -.290E-10 0.314E-11 0.219E+04   -.795E-10 0.138E-12 -.219E+04   0.141E-23 -.760E-24 -.140E+01   -.351E-12 0.679E-13 0.649E-03
   0.279E-10 -.343E-11 0.219E+04   0.808E-10 0.155E-12 -.219E+04   0.563E-24 0.624E-25 -.140E+01   0.303E-12 0.653E-13 0.649E-03
   0.291E-10 -.507E+02 0.301E+04   0.808E-10 0.525E+02 -.300E+04   -.286E-15 -.183E+01 -.217E+00   0.443E-13 0.425E-04 0.102E-02
   0.569E-12 -.507E+02 0.301E+04   0.318E-11 0.525E+02 -.300E+04   -.285E-15 -.183E+01 -.217E+00   -.648E-12 0.425E-04 0.102E-02
   -.273E-10 -.507E+02 0.301E+04   -.842E-10 0.525E+02 -.300E+04   -.286E-15 -.183E+01 -.217E+00   0.689E-12 0.425E-04 0.102E-02
[...]
   0.292E-12 0.579E+02 -.496E+04   -.213E-12 -.606E+02 0.495E+04   0.433E-15 0.277E+01 0.423E+01   0.408E-12 0.160E-03 -.157E-02
   -.269E-10 0.579E+02 -.496E+04   -.778E-10 -.606E+02 0.495E+04   0.433E-15 0.277E+01 0.423E+01   0.157E-12 0.160E-03 -.157E-02
   0.130E-11 0.161E-11 -.588E+04   -.298E-12 -.337E-12 0.592E+04   0.140E-24 0.123E-23 -.386E+02   -.875E-12 -.326E-13 -.155E-02
   -.268E-10 0.658E-13 -.588E+04   -.772E-10 -.364E-12 0.592E+04   -.405E-24 0.121E-23 -.386E+02   0.484E-13 -.360E-13 -.155E-02
   0.263E-10 0.105E-10 -.588E+04   0.764E-10 -.293E-12 0.592E+04   0.258E-24 -.472E-24 -.386E+02   0.828E-12 -.387E-13 -.155E-02
   0.302E-10 -.579E+02 -.496E+04   0.769E-10 0.606E+02 0.495E+04   -.434E-15 -.277E+01 0.423E+01   -.584E-12 -.160E-03 -.157E-02
   0.479E-12 -.579E+02 -.496E+04   -.618E-12 0.606E+02 0.495E+04   -.433E-15 -.277E+01 0.423E+01   0.397E-12 -.160E-03 -.157E-02
   -.267E-10 -.579E+02 -.496E+04   -.781E-10 0.606E+02 0.495E+04   -.433E-15 -.277E+01 0.423E+01   0.132E-12 -.160E-03 -.157E-02
   -.593E-12 0.843E-11 0.610E+04   0.432E-12 0.349E-12 -.613E+04   0.103E-23 -.612E-23 0.380E+02   0.446E-12 0.706E-14 0.178E-02
   0.627E-12 0.811E-11 -.610E+04   -.256E-12 -.333E-12 0.614E+04   0.240E-23 -.259E-23 -.380E+02   0.367E-13 0.103E-13 -.176E-02
   -.393E-10 0.710E-11 0.610E+04   -.267E-10 0.377E-12 -.613E+04   0.184E-23 -.692E-23 0.380E+02   -.266E-12 0.158E-13 0.178E-02
   0.386E-10 0.129E-10 -.610E+04   0.268E-10 -.398E-12 0.614E+04   0.337E-23 -.186E-23 -.380E+02   0.159E-12 0.102E-13 -.176E-02
   0.378E-10 0.831E-11 0.610E+04   0.275E-10 0.368E-12 -.613E+04   0.163E-24 -.563E-23 0.380E+02   -.137E-12 0.103E-13 0.178E-02
   -.384E-10 0.559E-11 -.610E+04   -.273E-10 -.351E-12 0.614E+04   0.854E-24 -.391E-23 -.380E+02   -.655E-13 0.440E-14 -.176E-02
   0.478E-10 0.212E-09 0.350E+00   0.112E-12 -.947E-13 -.118E-10   -.258E-17 0.444E-15 -.711E-14   0.204E-11 0.128E-11 -.298E-03

 POSITION                                       TOTAL-FORCE (eV/Angst)
      1.58876      4.80172      8.94566         0.000000      0.000000     -0.034884
      4.76627      4.80172      8.94566        -0.000000      0.000000     -0.034884
      7.94378      4.80172      8.94566         0.000000      0.000000     -0.034884
      0.00000      1.60057      8.85446         0.000000      0.000000      0.024558
      3.17751      1.60057      8.85446         0.000000      0.000000      0.024558
      6.35503      1.60057      8.85446         0.000000      0.000000      0.024558
      1.58876      1.60057     12.15326         0.000000      0.000000      0.017061
      4.76627      1.60057     12.15326        -0.000000      0.000000      0.017061
      7.94378      1.60057     12.15326         0.000000      0.000000      0.017061
      0.00000      4.80172     12.15127         0.000000      0.000000     -0.027797
      3.17751      4.80172     12.15127        -0.000000      0.000000     -0.027797
      6.35503      4.80172     12.15127         0.000000      0.000000     -0.027797
      1.58876      4.80172     15.36550        -0.000000      0.000000      0.013787
      4.76627      4.80172     15.36550         0.000000      0.000000      0.013787
      7.94378      4.80172     15.36550        -0.000000      0.000000      0.013787
      0.00000      1.60057     15.36550        -0.000000      0.000000     -0.105101
      3.17751      1.60057     15.36550         0.000000      0.000000     -0.105101
      6.35503      1.60057     15.36550        -0.000000      0.000000     -0.105101
      1.58876      1.60057     18.56665         0.000000      0.000000     -0.013787
      4.76627      1.60057     18.56665        -0.000000      0.000000     -0.013787
      7.94378      1.60057     18.56665        -0.000000      0.000000     -0.013787
      0.00000      4.80172     18.56665         0.000000      0.000000      0.105101
      3.17751      4.80172     18.56665        -0.000000      0.000000      0.105101
      6.35503      4.80172     18.56665         0.000000      0.000000      0.105101
      1.58876      4.80172     21.77889        -0.000000      0.000000     -0.017061
      4.76627      4.80172     21.77889         0.000000      0.000000     -0.017061
      7.94378      4.80172     21.77889        -0.000000      0.000000     -0.017061
      0.00000      1.60057     21.78088         0.000000      0.000000      0.027797
      3.17751      1.60057     21.78088        -0.000000      0.000000      0.027797
      6.35503      1.60057     21.78088         0.000000      0.000000      0.027797
      1.58876      1.60057     24.98648         0.000000      0.000000      0.034884
      4.76627      1.60057     24.98648         0.000000      0.000000      0.034884
      7.94378      1.60057     24.98648         0.000000      0.000000      0.034884
      0.00000      4.80172     25.07769        -0.000000      0.000000     -0.024558
      3.17751      4.80172     25.07769        -0.000000      0.000000     -0.024558
      6.35503      4.80172     25.07769         0.000000      0.000000     -0.024558
      0.00000      4.80172      7.78094        -0.000000      0.000000      0.028052
      3.17751      4.80172      7.78094         0.000000      0.000000      0.028052
      6.35503      4.80172      7.78094        -0.000000      0.000000      0.028052
      1.58876      0.37845      8.98501        -0.000000     -0.010749      0.010706
      4.76627      0.37845      8.98501        -0.000000     -0.010749      0.010706
      7.94378      0.37845      8.98501        -0.000000     -0.010749      0.010706
      0.00000      4.80172     10.18689        -0.000000      0.000000      0.011103
      3.17751      4.80172     10.18689        -0.000000      0.000000      0.011103
      6.35503      4.80172     10.18689         0.000000      0.000000      0.011103
      1.58876      2.82270      8.98501         0.000000      0.010749      0.010706
      4.76627      2.82270      8.98501         0.000000      0.010749      0.010706
      7.94378      2.82270      8.98501         0.000000      0.010749      0.010706
      0.00000      1.60057     10.91741        -0.000000      0.000000      0.010374
      3.17751      1.60057     10.91741        -0.000000      0.000000      0.010374
      6.35503      1.60057     10.91741         0.000000      0.000000      0.010374
      1.58876      3.57222     12.15757        -0.000000     -0.011692      0.014488
      4.76627      3.57222     12.15757        -0.000000     -0.011692      0.014488
      7.94378      3.57222     12.15757        -0.000000     -0.011692      0.014488
      0.00000      1.60057     13.38601        -0.000000      0.000000      0.001958
      3.17751      1.60057     13.38601         0.000000      0.000000      0.001958
      6.35503      1.60057     13.38601        -0.000000      0.000000      0.001958
      1.58876      6.03122     12.15757         0.000000      0.011692      0.014488
      4.76627      6.03122     12.15757         0.000000      0.011692      0.014488
      7.94378      6.03122     12.15757         0.000000      0.011692      0.014488
[...]
      1.58876      3.57959     24.94714        -0.000000     -0.010749     -0.010706
      4.76627      3.57959     24.94714        -0.000000     -0.010749     -0.010706
      7.94378      3.57959     24.94714        -0.000000     -0.010749     -0.010706
      0.00000      1.60057     26.15120        -0.000000      0.000000     -0.028052
      3.17751      1.60057     26.15120         0.000000      0.000000     -0.028052
      6.35503      1.60057     26.15120        -0.000000      0.000000     -0.028052
      1.58876      6.02384     24.94714         0.000000      0.010749     -0.010706
      4.76627      6.02384     24.94714         0.000000      0.010749     -0.010706
      7.94378      6.02384     24.94714         0.000000      0.010749     -0.010706
      0.00000      1.60057      7.08118         0.000000      0.000000      0.001235
      0.00000      4.80172     26.85087        -0.000000      0.000000     -0.001235
      3.17751      1.60057      7.08118         0.000000      0.000000      0.001235
      6.35503      4.80172     26.85087         0.000000      0.000000     -0.001235
      6.35503      1.60057      7.08118        -0.000000      0.000000      0.001235
      3.17751      4.80172     26.85087         0.000000      0.000000     -0.001235
    total drift:                                0.000000      0.000000      0.349893

  FREE ENERGIE OF THE ION-ELECTRON SYSTEM (eV)
  free  energy   TOTEN  =      -811.00933650 eV

  energy  without entropy=     -810.93986524  energy(sigma->0) =     -810.97460087

 total charge

[...]

 magnetization (x)

# of ion       s       p       d       f       tot
    1       -0.007  -0.001  -0.176  -0.000  -0.184
    2       -0.007  -0.001  -0.176  -0.000  -0.184
    3       -0.007  -0.001  -0.176  -0.000  -0.184
    4        0.016   0.003   0.533   0.004   0.556
    5        0.016   0.003   0.533   0.004   0.556
    6        0.016   0.003   0.533   0.004   0.556
    7       -0.002  -0.000  -0.128   0.000  -0.130
    8       -0.002  -0.000  -0.128   0.000  -0.130
    9       -0.002  -0.000  -0.128   0.000  -0.130
   10        0.001   0.000   0.046  -0.000   0.047
   11        0.001   0.000   0.046  -0.000   0.047
   12        0.001   0.000   0.046  -0.000   0.047
   13       -0.001   0.000   0.010   0.000   0.010
   14       -0.001   0.000   0.010   0.000   0.010
   15       -0.001   0.000   0.010   0.000   0.010
   16        0.002   0.000   0.010  -0.000   0.012
   17        0.002   0.000   0.010  -0.000   0.012
   18        0.002   0.000   0.010  -0.000   0.012
   19       -0.001   0.000   0.010   0.000   0.010
   20       -0.001   0.000   0.010   0.000   0.010
   21       -0.001   0.000   0.010   0.000   0.010
   22        0.002   0.000   0.010  -0.000   0.012
   23        0.002   0.000   0.010  -0.000   0.012
   24        0.002   0.000   0.010  -0.000   0.012
   25       -0.002  -0.000  -0.128   0.000  -0.130
   26       -0.002  -0.000  -0.128   0.000  -0.130
   27       -0.002  -0.000  -0.128   0.000  -0.130
   28        0.001   0.000   0.046  -0.000   0.047
   29        0.001   0.000   0.046  -0.000   0.047
   30        0.001   0.000   0.046  -0.000   0.047
   31       -0.007  -0.001  -0.176  -0.000  -0.184
   32       -0.007  -0.001  -0.176  -0.000  -0.184
   33       -0.007  -0.001  -0.176  -0.000  -0.184
   34        0.016   0.003   0.533   0.004   0.556
   35        0.016   0.003   0.533   0.004   0.556
   36        0.016   0.003   0.533   0.004   0.556
   37       -0.001  -0.061  -0.000   0.000  -0.062
   38       -0.001  -0.061  -0.000   0.000  -0.062
   39       -0.001  -0.061  -0.000   0.000  -0.062
   40        0.001  -0.020   0.001   0.000  -0.018
   41        0.001  -0.020   0.001   0.000  -0.018
   42        0.001  -0.020   0.001   0.000  -0.018
   43        0.000   0.012  -0.000   0.000   0.012
   44        0.000   0.012  -0.000   0.000   0.012
   45        0.000   0.012  -0.000   0.000   0.012
   46        0.001  -0.020   0.001   0.000  -0.018
   47        0.001  -0.020   0.001   0.000  -0.018
   48        0.001  -0.020   0.001   0.000  -0.018
   49       -0.002  -0.018   0.001   0.000  -0.018
   50       -0.002  -0.018   0.001   0.000  -0.018
   51       -0.002  -0.018   0.001   0.000  -0.018
   52        0.000  -0.002  -0.000   0.000  -0.003
   53        0.000  -0.002  -0.000   0.000  -0.003
   54        0.000  -0.002  -0.000   0.000  -0.003
   55       -0.000  -0.033   0.000   0.000  -0.033
   56       -0.000  -0.033   0.000   0.000  -0.033
   57       -0.000  -0.033   0.000   0.000  -0.033
   58        0.000  -0.002  -0.000   0.000  -0.003
   59        0.000  -0.002  -0.000   0.000  -0.003
   60        0.000  -0.002  -0.000   0.000  -0.003
[...]
  100        0.001  -0.020   0.001   0.000  -0.018
  101        0.001  -0.020   0.001   0.000  -0.018
  102        0.001  -0.020   0.001   0.000  -0.018
  103       -0.001  -0.061  -0.000   0.000  -0.062
  104       -0.001  -0.061  -0.000   0.000  -0.062
  105       -0.001  -0.061  -0.000   0.000  -0.062
  106        0.001  -0.020   0.001   0.000  -0.018
  107        0.001  -0.020   0.001   0.000  -0.018
  108        0.001  -0.020   0.001   0.000  -0.018
  109        0.010   0.678  -0.000   0.000   0.687
  110        0.010   0.678  -0.000   0.000   0.687
  111        0.010   0.678  -0.000   0.000   0.687
  112        0.010   0.678  -0.000   0.000   0.687
  113        0.010   0.678  -0.000   0.000   0.687
  114        0.010   0.678  -0.000   0.000   0.687
tot          0.116   3.339   1.792   0.022   5.269