 vasp.6.3.2 27Jun22 (build Apr 27 2024 20:17:35) complex

 executed on             LinuxIFC date 2025.03.18  18:54:56

 INCAR:
   SYSTEM = IrO2-110
   ENCUT = 500
   ALGO = Normal
   NELMIN = 6
   NELM = 300
   NELMDL = -8
   EDIFF = 1.0E-5
   LREAL = AUTO
   AMIN = 0.01
   PREC = Accurate
   ISPIN = 2
   NGX = 108
   NGY = 72
   NGZ = 640
   ADDGRID = .TRUE.
   LASPH = .TRUE.
   NSW = 0
   EDIFFG = -0.025
   IBRION = 2
   ISIF = 0
   POTIM = 0.50
   ISMEAR = 0
   SIGMA = 0.0500
   LORBIT = 10
   NEDOS = 6001
   NWRITE = 1
   LWAVE = .FALSE.
   LCHARG = .TRUE.
   LAECHG = .TRUE.
   NCORE = 5
   LPLANE = .TRUE.

 POTCAR:    PAW_PBE H_GW 21Apr2008
 POTCAR:    PAW_PBE Ir_sv_GW 23Mar2010
 POTCAR:    PAW_PBE O_GW_new 19Mar2012
|           W    W    AA    RRRRR   N    N  II  N    N   GGGG   !!!           |
|           W    W   A  A   R    R  NN   N  II  NN   N  G    G  !!!           |
|           W    W  A    A  R    R  N N  N  II  N N  N  G       !!!           |
|           W WW W  AAAAAA  RRRRR   N  N N  II  N  N N  G  GGG   !            |
|           WW  WW  A    A  R   R   N   NN  II  N   NN  G    G                |
|           W    W  A    A  R    R  N    N  II  N    N   GGGG   !!!           |
|     You use a magnetic or noncollinear calculation, but did not specify     |
|     the initial magnetic moment with the MAGMOM tag. Note that a            |
|     default of 1 will be used for all atoms. This ferromagnetic setup       |
|     may break the symmetry of the crystal, in particular it may rule        |
|     out finding an antiferromagnetic solution. Thence, we recommend         |
|     setting the initial magnetic moment manually or verifying carefully     |
|     that this magnetic setup is desired.                                    |

 POTCAR:    PAW_PBE H_GW 21Apr2008

 POTCAR:    PAW_PBE Ir_sv_GW 23Mar2010

 POTCAR:    PAW_PBE O_GW_new 19Mar2012

 Optimization of the real space projectors (new method)

 maximal supplied QI-value         = 34.20
 optimisation between [QCUT,QGAM] = [ 11.29, 22.57] = [ 35.68,142.71] Ry
 Optimized for a Real-space Cutoff    1.39 Angstroem

   l    n(q)    QCUT    max X(q) W(low)/X(q) W(high)/X(q)  e(spline)
   0      9    11.287    26.161    0.83E-04    0.13E-04    0.69E-06
   0      9    11.287    15.773    0.76E-04    0.14E-04    0.67E-06
   1      9    11.287     3.232    0.52E-04    0.72E-04    0.76E-06
   1      9    11.287     2.453    0.58E-04    0.31E-04    0.62E-06
   2      8    11.287     6.749    0.12E-03    0.49E-03    0.66E-06
 Optimization of the real space projectors (new method)

[...]

   l    n(q)    QCUT    max X(q) W(low)/X(q) W(high)/X(q)  e(spline)
   0     11    11.376   331.533    0.45E-04    0.10E-03    0.18E-05
   0     11    11.376   348.190    0.46E-04    0.10E-03    0.18E-05
   0     11    11.376     6.927    0.35E-04    0.83E-04    0.16E-05
   1     10    11.376     2.497    0.49E-05    0.43E-05    0.65E-07
   1     10    11.376     2.823    0.91E-05    0.21E-04    0.27E-06
   2     10    11.376    64.269    0.20E-03    0.53E-03    0.84E-06
   2     10    11.376    59.672    0.20E-03    0.54E-03    0.85E-06
   3      9    11.376     4.004    0.24E-03    0.21E-03    0.44E-06
 Optimization of the real space projectors (new method)

 maximal supplied QI-value         = 23.62
 optimisation between [QCUT,QGAM] = [ 11.34, 22.68] = [ 36.00,144.00] Ry
 Optimized for a Real-space Cutoff    1.66 Angstroem

   l    n(q)    QCUT    max X(q) W(low)/X(q) W(high)/X(q)  e(spline)
   0     11    11.338   116.464    0.17E-03    0.30E-03    0.79E-05
   0     11    11.338   116.329    0.16E-03    0.29E-03    0.76E-05
   0     11    11.338     0.942    0.79E-04    0.14E-03    0.33E-05
   1     11    11.338    54.336    0.24E-03    0.89E-03    0.12E-04
   1     11    11.338    48.242    0.24E-03    0.87E-03    0.12E-04
   1     11    11.338     2.381    0.18E-03    0.63E-03    0.86E-05
   2     10    11.338     2.237    0.15E-04    0.16E-04    0.66E-06
   2     10    11.338     2.457    0.37E-04    0.22E-04    0.97E-06
  PAW_PBE H_GW 21Apr2008                :
  PAW_PBE Ir_sv_GW 23Mar2010            :
  PAW_PBE O_GW_new 19Mar2012            :

 POSCAR: Ir36 H12 O78
  positions in direct lattice
  velocities in cartesian coordinates
 exchange correlation table for  LEXCH =        8
   RHO(1)=    0.500       N(1)  =     2000
   RHO(2)=  100.500       N(2)  =     4000

 POSCAR: Ir36 H12 O78
  positions in direct lattice
  velocities in cartesian coordinates

 POSCAR: Ir36 H12 O78
  positions in direct lattice
  velocities in cartesian coordinates

 ion  position               nearest neighbor table
   1  0.000  0.907  0.128-  49 1.01
   2  1.000  0.093  0.472- 115 1.00
   3  0.667  0.907  0.128-  51 1.01
   4  0.333  0.093  0.472- 116 1.00
   5  0.334  0.907  0.128-  50 1.01
   6  0.666  0.093  0.472- 117 1.00
   7  0.914  0.231  0.117- 121 0.98
   8  0.086  0.769  0.483- 122 0.98
   9  0.581  0.231  0.117- 125 0.98
  10  0.419  0.769  0.483- 126 0.98
  11  0.247  0.231  0.117- 123 0.98
  12  0.753  0.769  0.483- 124 0.98
  13  0.166  0.750  0.158-  52 1.96  58 1.98  56 2.01  55 2.01  49 2.06  50 2.06  15 3.18  14 3.18

  14  0.500  0.750  0.158-  53 1.96  59 1.98  57 2.01  56 2.01  50 2.06  51 2.06  13 3.18  15 3.18

[...]

  49  1.000  0.765  0.135-   1 1.01  13 2.06  15 2.06
  50  0.333  0.765  0.135-   5 1.01  14 2.06  13 2.06
  51  0.666  0.765  0.135-   3 1.01  15 2.06  14 2.06
  52  0.167  0.057  0.160-  13 1.96  17 2.00  16 2.01
  53  0.500  0.057  0.160-  14 1.96  18 2.00  17 2.01
  54  0.833  0.057  0.160-  15 1.96  16 2.00  18 2.01
  55  1.000  0.741  0.180-  22 1.97  15 2.01  13 2.01
  56  0.333  0.741  0.180-  23 1.97  13 2.01  14 2.01
  57  0.666  0.741  0.180-  24 1.97  14 2.01  15 2.01
  58  0.166  0.441  0.156-  13 1.98  16 2.01  17 2.02
  59  0.499  0.441  0.156-  14 1.98  17 2.01  18 2.02
  60  0.832  0.441  0.156-  15 1.98  18 2.01  16 2.02
  61  0.999  0.261  0.193-  21 2.00  16 2.00  19 2.00
  62  0.333  0.261  0.193-  19 2.00  17 2.00  20 2.00
  63  0.666  0.261  0.193-  20 2.00  18 2.00  21 2.00
  64  0.166  0.560  0.215-  19 1.97  22 2.00  23 2.01
  65  0.500  0.560  0.215-  20 1.97  23 2.00  24 2.01
  66  0.833  0.560  0.215-  21 1.97  24 2.00  22 2.01
  67  1.000  0.249  0.237-  28 1.97  19 2.00  21 2.01
  68  0.333  0.249  0.237-  29 1.97  20 2.00  19 2.01
  69  0.666  0.249  0.237-  30 1.97  21 2.00  20 2.01
  70  0.166  0.944  0.215-  19 1.98  22 2.01  23 2.01
  71  0.500  0.944  0.215-  20 1.98  23 2.01  24 2.01
  72  0.833  0.944  0.215-  21 1.98  24 2.01  22 2.01
  73  0.000  0.750  0.250-  22 1.97  25 2.01  27 2.01
  74  0.333  0.750  0.250-  23 1.97  26 2.01  25 2.01
  75  0.667  0.750  0.250-  24 1.97  26 2.01  27 2.01
  76  0.167  0.058  0.271-  25 1.97  28 2.01  29 2.01
  77  0.500  0.058  0.271-  26 1.97  29 2.01  30 2.01
  78  0.833  0.058  0.271-  27 1.97  28 2.01  30 2.01
  79  0.000  0.750  0.293-  34 1.97  27 2.01  25 2.01
  80  0.333  0.750  0.293-  35 1.97  26 2.01  25 2.01
  81  0.667  0.750  0.293-  36 1.97  26 2.01  27 2.01
  82  0.167  0.442  0.271-  25 1.97  28 2.01  29 2.01
  83  0.500  0.442  0.271-  26 1.97  30 2.01  29 2.01
  84  0.833  0.442  0.271-  27 1.97  28 2.01  30 2.01
  85  0.000  0.250  0.306-  28 1.97  31 2.01  33 2.01
  86  0.333  0.250  0.306-  29 1.97  32 2.01  31 2.01
  87  0.667  0.250  0.306-  30 1.97  32 2.01  33 2.01
  88  0.167  0.558  0.328-  31 1.97  34 2.01  35 2.01
  89  0.500  0.558  0.328-  32 1.97  35 2.01  36 2.01
  90  0.833  0.558  0.328-  33 1.97  34 2.01  36 2.01
  91  0.000  0.250  0.350-  40 1.97  33 2.01  31 2.01
  92  0.333  0.250  0.350-  41 1.97  32 2.01  31 2.01
  93  0.667  0.250  0.350-  42 1.97  32 2.01  33 2.01
  94  0.167  0.942  0.328-  31 1.97  34 2.01  35 2.01
  95  0.500  0.942  0.328-  32 1.97  36 2.01  35 2.01
  96  0.833  0.942  0.328-  33 1.97  34 2.01  36 2.01
  97  0.000  0.751  0.363-  34 1.97  39 2.00  37 2.01
  98  0.334  0.751  0.363-  35 1.97  37 2.00  38 2.01
  99  0.667  0.751  0.363-  36 1.97  38 2.00  39 2.01
 100  0.167  0.056  0.385-  37 1.98  41 2.01  40 2.01
 101  0.500  0.056  0.385-  38 1.98  42 2.01  41 2.01
 102  0.834  0.056  0.385-  39 1.98  40 2.01  42 2.01
 103  0.001  0.739  0.406-  37 2.00  46 2.00  39 2.00
 104  0.334  0.739  0.406-  38 2.00  47 2.00  37 2.00
 105  0.667  0.739  0.406-  39 2.00  48 2.00  38 2.00
 106  0.167  0.440  0.384-  37 1.97  41 2.00  40 2.01
 107  0.500  0.440  0.384-  38 1.97  42 2.00  41 2.01
 108  0.834  0.440  0.384-  39 1.97  40 2.00  42 2.01
[...]
 112  0.168  0.559  0.443-  43 1.98  47 2.01  46 2.02
 113  0.501  0.559  0.443-  44 1.98  48 2.01  47 2.02
 114  0.834  0.559  0.443-  45 1.98  46 2.01  48 2.02
 115  0.000  0.235  0.464-   2 1.00  45 2.06  43 2.06
 116  0.334  0.235  0.464-   4 1.00  43 2.06  44 2.06
 117  0.667  0.235  0.464-   6 1.00  44 2.06  45 2.06
 118  0.167  0.943  0.440-  43 1.96  46 2.00  47 2.01
 119  0.500  0.943  0.440-  44 1.96  47 2.00  48 2.01
 120  0.833  0.943  0.440-  45 1.96  48 2.00  46 2.01
 121  0.005  0.192  0.123-   7 0.98  16 1.99
 122  0.995  0.808  0.476-   8 0.98  46 1.99
 123  0.338  0.192  0.123-  11 0.98  17 1.99
 124  0.662  0.808  0.476-  12 0.98  48 1.99
 125  0.672  0.192  0.123-   9 0.98  18 1.99
 126  0.328  0.808  0.476-  10 0.98  47 1.99

  LATTYP: Found a simple orthorhombic cell.
 ALAT       =     6.4022918039
 B/A-ratio  =     1.4889259653
 C/A-ratio  =     8.8429110168

  Lattice vectors:

 A1 = (  -0.0000000000,  -6.4022918039,   0.0000000000)
 A2 = (   9.5325385041,   0.0000000000,   0.0000000000)
 A3 = (   0.0000000000,   0.0000000000,  56.6148967251)

Analysis of symmetry for initial positions (statically):
 Subroutine PRICEL returns following result:

[...]

   3 primitive cells build up your supercell.

 Routine SETGRP: Setting up the symmetry group for a
 simple orthorhombic supercell.

 Subroutine GETGRP returns: Found  2 space group operations
 (whereof  1 operations were pure point group operations)
 out of a pool of  8 trial point group operations.

The static configuration has the point symmetry C_1 .
 The point group associated with its full space group is S_2 .

Analysis of symmetry for dynamics (positions and initial velocities):
 Subroutine PRICEL returns following result:

[...]

The dynamic configuration has the point symmetry C_1 .
 The point group associated with its full space group is S_2 .

Analysis of constrained symmetry for selective dynamics:
 Subroutine PRICEL returns following result:

[...]

The constrained configuration has the point symmetry C_1 .
 The point group associated with its full space group is S_2 .

Analysis of structural, dynamic, and magnetic symmetry:
 Subroutine PRICEL returns following result:

  LATTYP: Found a simple orthorhombic cell.
 ALAT       =     3.1775128347
 B/A-ratio  =     2.0148751986
 C/A-ratio  =    17.8173620912

  Lattice vectors:

 A1 = (   3.1775128347,   0.0000000000,   0.0000000000)
 A2 = (   0.0000000000,   6.4022918039,   0.0000000000)
 A3 = (   0.0000000000,   0.0000000000,  56.6148967251)

   3 primitive cells build up your supercell.

 Routine SETGRP: Setting up the symmetry group for a
 simple orthorhombic supercell.

[...]
   -.154E+00 0.147E+01 0.283E+04   0.145E+00 -.149E+01 -.283E+04   0.111E-02 0.281E-02 -.362E-01   -.596E-07 0.223E-05 0.378E-03
   -.154E+00 0.147E+01 0.283E+04   0.145E+00 -.149E+01 -.283E+04   0.111E-02 0.281E-02 -.362E-01   -.596E-07 0.223E-05 0.378E-03
   -.237E-01 0.204E+01 -.283E+04   0.174E-01 -.205E+01 0.283E+04   0.307E-02 0.288E-02 0.385E-01   -.531E-08 0.201E-05 0.154E-03
   -.237E-01 0.204E+01 -.283E+04   0.174E-01 -.205E+01 0.283E+04   0.307E-02 0.288E-02 0.385E-01   -.531E-08 0.201E-05 0.154E-03
   -.237E-01 0.204E+01 -.283E+04   0.174E-01 -.205E+01 0.283E+04   0.307E-02 0.288E-02 0.385E-01   -.531E-08 0.201E-05 0.154E-03
   0.154E+00 -.147E+01 -.283E+04   -.145E+00 0.149E+01 0.283E+04   -.111E-02 -.281E-02 0.362E-01   0.594E-07 -.224E-05 0.143E-03
   0.154E+00 -.147E+01 -.283E+04   -.145E+00 0.149E+01 0.283E+04   -.111E-02 -.281E-02 0.362E-01   0.594E-07 -.224E-05 0.143E-03
   0.154E+00 -.147E+01 -.283E+04   -.145E+00 0.149E+01 0.283E+04   -.111E-02 -.281E-02 0.362E-01   0.594E-07 -.224E-05 0.143E-03
   0.362E+00 -.128E+02 -.849E+04   -.367E+00 0.126E+02 0.849E+04   -.118E-01 0.112E+00 -.171E+00   0.289E-07 0.219E-05 0.331E-03
   0.362E+00 -.128E+02 -.849E+04   -.367E+00 0.126E+02 0.849E+04   -.118E-01 0.112E+00 -.171E+00   0.289E-07 0.219E-05 0.331E-03
   0.362E+00 -.128E+02 -.849E+04   -.367E+00 0.126E+02 0.849E+04   -.118E-01 0.112E+00 -.171E+00   0.289E-07 0.219E-05 0.331E-03
   -.663E+00 0.168E+02 -.849E+04   0.650E+00 -.167E+02 0.849E+04   0.174E-01 -.108E+00 -.101E+00   0.427E-07 -.173E-05 0.324E-03
   -.663E+00 0.168E+02 -.849E+04   0.650E+00 -.167E+02 0.849E+04   0.174E-01 -.108E+00 -.101E+00   0.427E-07 -.173E-05 0.324E-03
   -.663E+00 0.168E+02 -.849E+04   0.650E+00 -.167E+02 0.849E+04   0.174E-01 -.108E+00 -.101E+00   0.427E-07 -.173E-05 0.324E-03
   0.641E+00 -.790E+02 -.141E+05   -.620E+00 0.787E+02 0.141E+05   -.124E-01 0.294E+00 0.695E-01   0.529E-07 0.955E-05 0.346E-03
   0.641E+00 -.790E+02 -.141E+05   -.620E+00 0.787E+02 0.141E+05   -.124E-01 0.294E+00 0.695E-01   0.529E-07 0.955E-05 0.346E-03
   0.641E+00 -.790E+02 -.141E+05   -.620E+00 0.787E+02 0.141E+05   -.124E-01 0.294E+00 0.695E-01   0.529E-07 0.955E-05 0.346E-03
   -.176E+01 0.964E+02 -.141E+05   0.179E+01 -.961E+02 0.141E+05   -.197E-01 -.304E+00 -.146E+01   0.424E-06 -.631E-05 0.371E-03
   -.176E+01 0.964E+02 -.141E+05   0.179E+01 -.961E+02 0.141E+05   -.197E-01 -.304E+00 -.146E+01   0.424E-06 -.631E-05 0.371E-03
   -.176E+01 0.964E+02 -.141E+05   0.179E+01 -.961E+02 0.141E+05   -.197E-01 -.304E+00 -.146E+01   0.424E-06 -.631E-05 0.371E-03
   0.563E+00 0.657E+02 0.588E+04   -.662E+00 -.102E+03 -.589E+04   0.103E+00 0.361E+02 0.148E+02   -.567E-07 0.148E-05 0.204E-04
   0.563E+00 0.657E+02 0.588E+04   -.662E+00 -.102E+03 -.589E+04   0.103E+00 0.361E+02 0.148E+02   -.567E-07 0.148E-05 0.204E-04
   0.563E+00 0.657E+02 0.588E+04   -.662E+00 -.102E+03 -.589E+04   0.103E+00 0.361E+02 0.148E+02   -.567E-07 0.148E-05 0.204E-04
   0.102E+01 0.412E+02 0.489E+04   -.125E+01 -.422E+02 -.489E+04   0.229E+00 0.101E+01 -.354E+01   0.831E-06 0.120E-04 0.350E-04
   0.102E+01 0.412E+02 0.489E+04   -.125E+01 -.422E+02 -.489E+04   0.229E+00 0.101E+01 -.354E+01   0.831E-06 0.120E-04 0.350E-04
   0.102E+01 0.412E+02 0.489E+04   -.125E+01 -.422E+02 -.489E+04   0.229E+00 0.101E+01 -.354E+01   0.831E-06 0.120E-04 0.350E-04
   0.140E-02 0.233E+02 0.418E+04   -.912E-02 -.264E+02 -.418E+04   0.113E-01 0.310E+01 -.137E+01   0.355E-07 -.136E-05 0.544E-04
   0.140E-02 0.233E+02 0.418E+04   -.912E-02 -.264E+02 -.418E+04   0.113E-01 0.310E+01 -.137E+01   0.355E-07 -.136E-05 0.544E-04
   0.140E-02 0.233E+02 0.418E+04   -.912E-02 -.264E+02 -.418E+04   0.113E-01 0.310E+01 -.137E+01   0.355E-07 -.136E-05 0.544E-04
   -.182E+01 -.623E+02 0.509E+04   0.162E+01 0.647E+02 -.510E+04   0.198E+00 -.242E+01 0.332E+01   -.565E-06 -.119E-04 0.422E-04
   -.182E+01 -.623E+02 0.509E+04   0.162E+01 0.647E+02 -.510E+04   0.198E+00 -.242E+01 0.332E+01   -.565E-06 -.119E-04 0.422E-04
   -.182E+01 -.623E+02 0.509E+04   0.162E+01 0.647E+02 -.510E+04   0.198E+00 -.242E+01 0.332E+01   -.565E-06 -.119E-04 0.422E-04
[...]
   0.182E+01 0.623E+02 -.509E+04   -.162E+01 -.647E+02 0.510E+04   -.198E+00 0.242E+01 -.332E+01   0.566E-06 0.120E-04 0.115E-03
   0.182E+01 0.623E+02 -.509E+04   -.162E+01 -.647E+02 0.510E+04   -.198E+00 0.242E+01 -.332E+01   0.566E-06 0.120E-04 0.115E-03
   -.563E+00 -.657E+02 -.588E+04   0.662E+00 0.102E+03 0.589E+04   -.103E+00 -.361E+02 -.148E+02   0.558E-07 -.195E-05 0.771E-04
   -.563E+00 -.657E+02 -.588E+04   0.662E+00 0.102E+03 0.589E+04   -.103E+00 -.361E+02 -.148E+02   0.558E-07 -.195E-05 0.771E-04
   -.563E+00 -.657E+02 -.588E+04   0.662E+00 0.102E+03 0.589E+04   -.103E+00 -.361E+02 -.148E+02   0.558E-07 -.195E-05 0.771E-04
   -.102E+01 -.412E+02 -.489E+04   0.125E+01 0.422E+02 0.489E+04   -.229E+00 -.101E+01 0.354E+01   -.835E-06 -.121E-04 0.132E-03
   -.102E+01 -.412E+02 -.489E+04   0.125E+01 0.422E+02 0.489E+04   -.229E+00 -.101E+01 0.354E+01   -.835E-06 -.121E-04 0.132E-03
   -.102E+01 -.412E+02 -.489E+04   0.125E+01 0.422E+02 0.489E+04   -.229E+00 -.101E+01 0.354E+01   -.835E-06 -.121E-04 0.132E-03
   -.316E+02 -.275E+01 0.600E+04   0.716E+02 -.954E+01 -.601E+04   -.399E+02 0.123E+02 0.109E+02   0.777E-05 -.260E-06 0.894E-05
   0.316E+02 0.275E+01 -.600E+04   -.716E+02 0.955E+01 0.601E+04   0.399E+02 -.123E+02 -.109E+02   -.747E-05 0.310E-06 0.570E-04
   -.316E+02 -.275E+01 0.600E+04   0.716E+02 -.954E+01 -.601E+04   -.399E+02 0.123E+02 0.109E+02   0.777E-05 -.260E-06 0.894E-05
   0.316E+02 0.275E+01 -.600E+04   -.716E+02 0.955E+01 0.601E+04   0.399E+02 -.123E+02 -.109E+02   -.747E-05 0.310E-06 0.570E-04
   -.316E+02 -.275E+01 0.600E+04   0.716E+02 -.954E+01 -.601E+04   -.399E+02 0.123E+02 0.109E+02   0.777E-05 -.260E-06 0.894E-05
   0.316E+02 0.275E+01 -.600E+04   -.716E+02 0.955E+01 0.601E+04   0.399E+02 -.123E+02 -.109E+02   -.747E-05 0.310E-06 0.570E-04
   -.106E-02 -.148E-02 -.179E+02   -.199E-12 0.888E-14 0.909E-12   0.142E-13 0.178E-14 -.533E-14   -.976E-06 0.831E-06 0.172E-01

 POSITION                                       TOTAL-FORCE (eV/Angst)
      0.00258      5.80597      7.23169         0.002827     -0.001251     -0.010638
      9.52996      0.59632     26.70037        -0.002827      0.001251      0.010638
      6.35761      5.80597      7.23169         0.002827     -0.001251     -0.010638
      3.17493      0.59632     26.70037        -0.002827      0.001251      0.010638
      3.18010      5.80597      7.23169         0.002827     -0.001251     -0.010638
      6.35244      0.59632     26.70037        -0.002827      0.001251      0.010638
      8.71293      1.47838      6.60410        -0.009491      0.000707      0.001774
      0.81961      4.92391     27.32795         0.009491     -0.000707     -0.001774
      5.53541      1.47838      6.60410        -0.009491      0.000707      0.001774
      3.99713      4.92391     27.32795         0.009491     -0.000707     -0.001774
      2.35790      1.47838      6.60410        -0.009491      0.000707      0.001774
      7.17464      4.92391     27.32795         0.009491     -0.000707     -0.001774
      1.58611      4.80352      8.96665        -0.009195     -0.021310     -0.011038
      4.76363      4.80352      8.96665        -0.009195     -0.021310     -0.011038
      7.94114      4.80352      8.96665        -0.009195     -0.021310     -0.011038
      9.52829      1.58793      8.94401        -0.003756     -0.006472      0.034012
      3.17326      1.58793      8.94401        -0.003756     -0.006472      0.034012
      6.35078      1.58793      8.94401        -0.003756     -0.006472      0.034012
      1.58448      1.61698     12.16661         0.016355      0.001958      0.006670
      4.76200      1.61698     12.16661         0.016355      0.001958      0.006670
      7.93951      1.61698     12.16661         0.016355      0.001958      0.006670
      9.53029      4.81034     12.16420        -0.003598     -0.008033     -0.042575
      3.17527      4.81034     12.16420        -0.003598     -0.008033     -0.042575
      6.35278      4.81034     12.16420        -0.003598     -0.008033     -0.042575
      1.58876      4.80172     15.36550         0.003182      0.007591     -0.025922
      4.76627      4.80172     15.36550         0.003182      0.007591     -0.025922
      7.94378      4.80172     15.36550         0.003182      0.007591     -0.025922
      0.00000      1.60057     15.36550        -0.008196     -0.015777     -0.012233
      3.17751      1.60057     15.36550        -0.008196     -0.015777     -0.012233
      6.35503      1.60057     15.36550        -0.008196     -0.015777     -0.012233
      1.58876      1.60057     18.56665        -0.003182     -0.007591      0.025922
      4.76627      1.60057     18.56665        -0.003182     -0.007591      0.025922
      7.94378      1.60057     18.56665        -0.003182     -0.007591      0.025922
      0.00000      4.80172     18.56665         0.008196      0.015777      0.012233
      3.17751      4.80172     18.56665         0.008196      0.015777      0.012233
      6.35503      4.80172     18.56665         0.008196      0.015777      0.012233
      1.59303      4.78531     21.76554        -0.016355     -0.001958     -0.006670
      4.77054      4.78531     21.76554        -0.016355     -0.001958     -0.006670
      7.94806      4.78531     21.76554        -0.016355     -0.001958     -0.006670
      0.00225      1.59195     21.76794         0.003598      0.008033      0.042575
      3.17976      1.59195     21.76794         0.003598      0.008033      0.042575
      6.35727      1.59195     21.76794         0.003598      0.008033      0.042575
      1.59140      1.59877     24.96549         0.009195      0.021310      0.011038
      4.76891      1.59877     24.96549         0.009195      0.021310      0.011038
      7.94642      1.59877     24.96549         0.009195      0.021310      0.011038
      0.00425      4.81436     24.98814         0.003756      0.006472     -0.034012
      3.18176      4.81436     24.98814         0.003756      0.006472     -0.034012
      6.35927      4.81436     24.98814         0.003756      0.006472     -0.034012
      9.53077      4.89466      7.65545         0.003644     -0.009883      0.002084
      3.17575      4.89466      7.65545         0.003644     -0.009883      0.002084
      6.35326      4.89466      7.65545         0.003644     -0.009883      0.002084
      1.58922      0.36382      9.04068        -0.003793      0.014915      0.013077
      4.76673      0.36382      9.04068        -0.003793      0.014915      0.013077
      7.94425      0.36382      9.04068        -0.003793      0.014915      0.013077
      9.52961      4.74106     10.19351         0.003564      0.001589      0.013389
      3.17458      4.74106     10.19351         0.003564      0.001589      0.013389
      6.35209      4.74106     10.19351         0.003564      0.001589      0.013389
      1.57861      2.82505      8.84900         0.005827     -0.023905     -0.006343
      4.75612      2.82505      8.84900         0.005827     -0.023905     -0.006343
      7.93363      2.82505      8.84900         0.005827     -0.023905     -0.006343
[...]
      1.59891      3.57724     25.08315        -0.005827      0.023905      0.006343
      4.77642      3.57724     25.08315        -0.005827      0.023905      0.006343
      7.95393      3.57724     25.08315        -0.005827      0.023905      0.006343
      0.00176      1.50763     26.27670        -0.003644      0.009883     -0.002084
      3.17928      1.50763     26.27670        -0.003644      0.009883     -0.002084
      6.35679      1.50763     26.27670        -0.003644      0.009883     -0.002084
      1.58829      6.03847     24.89146         0.003793     -0.014915     -0.013077
      4.76580      6.03847     24.89146         0.003793     -0.014915     -0.013077
      7.94332      6.03847     24.89146         0.003793     -0.014915     -0.013077
      0.04868      1.22968      6.98313         0.015917     -0.005155      0.003312
      9.48386      5.17261     26.94892        -0.015917      0.005155     -0.003312
      3.22619      1.22968      6.98313         0.015917     -0.005155      0.003312
      6.30635      5.17261     26.94892        -0.015917      0.005155     -0.003312
      6.40370      1.22968      6.98313         0.015917     -0.005155      0.003312
      3.12883      5.17261     26.94892        -0.015917      0.005155     -0.003312
    total drift:                               -0.001058     -0.001479    -17.879391

  FREE ENERGIE OF THE ION-ELECTRON SYSTEM (eV)
  free  energy   TOTEN  =      -870.67025835 eV

  energy  without entropy=     -870.60737422  energy(sigma->0) =     -870.63881629

 total charge

[...]

 magnetization (x)

# of ion       s       p       d       f       tot
    1        0.000  -0.000  -0.000   0.000   0.000
    2        0.000  -0.000  -0.000   0.000   0.000
    3        0.000  -0.000  -0.000   0.000   0.000
    4        0.000  -0.000  -0.000   0.000   0.000
    5        0.000  -0.000  -0.000   0.000   0.000
    6        0.000  -0.000  -0.000   0.000   0.000
    7        0.000  -0.000   0.000   0.000  -0.000
    8        0.000  -0.000   0.000   0.000  -0.000
    9        0.000  -0.000   0.000   0.000  -0.000
   10        0.000  -0.000   0.000   0.000  -0.000
   11        0.000  -0.000   0.000   0.000  -0.000
   12        0.000  -0.000   0.000   0.000  -0.000
   13        0.000   0.000   0.000   0.000   0.000
   14        0.000   0.000   0.000   0.000   0.000
   15        0.000   0.000   0.000   0.000   0.000
   16        0.000   0.000   0.000   0.000   0.000
   17        0.000   0.000   0.000   0.000   0.000
   18        0.000   0.000   0.000   0.000   0.000
   19        0.000   0.000   0.000   0.000   0.000
   20        0.000   0.000   0.000   0.000   0.000
   21        0.000   0.000   0.000   0.000   0.000
   22        0.000   0.000   0.000   0.000   0.000
   23        0.000   0.000   0.000   0.000   0.000
   24        0.000   0.000   0.000   0.000   0.000
   25        0.000   0.000  -0.000   0.000   0.000
   26        0.000   0.000  -0.000   0.000   0.000
   27        0.000   0.000  -0.000   0.000   0.000
   28        0.000   0.000  -0.000   0.000   0.000
   29        0.000   0.000  -0.000   0.000   0.000
   30        0.000   0.000  -0.000   0.000   0.000
   31        0.000   0.000  -0.000   0.000   0.000
   32        0.000   0.000  -0.000   0.000   0.000
   33        0.000   0.000  -0.000   0.000   0.000
   34        0.000   0.000  -0.000   0.000   0.000
   35        0.000   0.000  -0.000   0.000   0.000
   36        0.000   0.000  -0.000   0.000   0.000
   37        0.000   0.000   0.000   0.000   0.000
   38        0.000   0.000   0.000   0.000   0.000
   39        0.000   0.000   0.000   0.000   0.000
   40        0.000   0.000   0.000   0.000   0.000
   41        0.000   0.000   0.000   0.000   0.000
   42        0.000   0.000   0.000   0.000   0.000
   43        0.000   0.000   0.000   0.000   0.000
   44        0.000   0.000   0.000   0.000   0.000
   45        0.000   0.000   0.000   0.000   0.000
   46        0.000   0.000   0.000   0.000   0.000
   47        0.000   0.000   0.000   0.000   0.000
   48        0.000   0.000   0.000   0.000   0.000
   49       -0.000  -0.000   0.000   0.000  -0.000
   50       -0.000  -0.000   0.000   0.000  -0.000
   51       -0.000  -0.000   0.000   0.000  -0.000
   52       -0.000  -0.000   0.000   0.000  -0.000
   53       -0.000  -0.000   0.000   0.000  -0.000
   54       -0.000  -0.000   0.000   0.000  -0.000
   55       -0.000   0.000   0.000   0.000   0.000
   56       -0.000   0.000   0.000   0.000   0.000
   57       -0.000   0.000   0.000   0.000   0.000
   58       -0.000  -0.000   0.000   0.000  -0.000
   59       -0.000  -0.000   0.000   0.000  -0.000
   60       -0.000  -0.000   0.000   0.000  -0.000
[...]
  112       -0.000  -0.000   0.000   0.000  -0.000
  113       -0.000  -0.000   0.000   0.000  -0.000
  114       -0.000  -0.000   0.000   0.000  -0.000
  115       -0.000  -0.000   0.000   0.000  -0.000
  116       -0.000  -0.000   0.000   0.000  -0.000
  117       -0.000  -0.000   0.000   0.000  -0.000
  118       -0.000  -0.000   0.000   0.000  -0.000
  119       -0.000  -0.000   0.000   0.000  -0.000
  120       -0.000  -0.000   0.000   0.000  -0.000
  121       -0.000   0.000   0.000   0.000   0.000
  122       -0.000   0.000   0.000   0.000   0.000
  123       -0.000   0.000   0.000   0.000   0.000
  124       -0.000   0.000   0.000   0.000   0.000
  125       -0.000   0.000   0.000   0.000   0.000
  126       -0.000   0.000   0.000   0.000   0.000
tot          0.000  -0.000   0.000   0.000   0.000