 vasp.6.3.2 27Jun22 (build Apr 27 2024 20:17:35) complex

 executed on             LinuxIFC date 2025.03.20  18:40:43

 INCAR:
   SYSTEM = IrO2-110
   ENCUT = 500
   ALGO = Normal
   NELMIN = 6
   NELM = 300
   NELMDL = -8
   EDIFF = 1.0E-5
   LREAL = AUTO
   AMIN = 0.01
   PREC = Accurate
   ISPIN = 2
   NGX = 108
   NGY = 72
   NGZ = 640
   ADDGRID = .TRUE.
   LASPH = .TRUE.
   NSW = 0
   EDIFFG = -0.025
   IBRION = 2
   ISIF = 0
   POTIM = 0.50
   ISMEAR = 0
   SIGMA = 0.0500
   LORBIT = 10
   NEDOS = 6001
   NWRITE = 1
   LWAVE = .FALSE.
   LCHARG = .TRUE.
   LAECHG = .TRUE.
   NCORE = 5
   LPLANE = .TRUE.

 POTCAR:    PAW_PBE H_GW 21Apr2008
 POTCAR:    PAW_PBE Ir_sv_GW 23Mar2010
 POTCAR:    PAW_PBE O_GW_new 19Mar2012
|           W    W    AA    RRRRR   N    N  II  N    N   GGGG   !!!           |
|           W    W   A  A   R    R  NN   N  II  NN   N  G    G  !!!           |
|           W    W  A    A  R    R  N N  N  II  N N  N  G       !!!           |
|           W WW W  AAAAAA  RRRRR   N  N N  II  N  N N  G  GGG   !            |
|           WW  WW  A    A  R   R   N   NN  II  N   NN  G    G                |
|           W    W  A    A  R    R  N    N  II  N    N   GGGG   !!!           |
|     You use a magnetic or noncollinear calculation, but did not specify     |
|     the initial magnetic moment with the MAGMOM tag. Note that a            |
|     default of 1 will be used for all atoms. This ferromagnetic setup       |
|     may break the symmetry of the crystal, in particular it may rule        |
|     out finding an antiferromagnetic solution. Thence, we recommend         |
|     setting the initial magnetic moment manually or verifying carefully     |
|     that this magnetic setup is desired.                                    |

 POTCAR:    PAW_PBE H_GW 21Apr2008

 POTCAR:    PAW_PBE Ir_sv_GW 23Mar2010

 POTCAR:    PAW_PBE O_GW_new 19Mar2012

 Optimization of the real space projectors (new method)

 maximal supplied QI-value         = 34.20
 optimisation between [QCUT,QGAM] = [ 11.29, 22.57] = [ 35.68,142.71] Ry
 Optimized for a Real-space Cutoff    1.39 Angstroem

   l    n(q)    QCUT    max X(q) W(low)/X(q) W(high)/X(q)  e(spline)
   0      9    11.287    26.161    0.83E-04    0.13E-04    0.69E-06
   0      9    11.287    15.773    0.76E-04    0.14E-04    0.67E-06
   1      9    11.287     3.232    0.52E-04    0.72E-04    0.76E-06
   1      9    11.287     2.453    0.58E-04    0.31E-04    0.62E-06
   2      8    11.287     6.749    0.12E-03    0.49E-03    0.66E-06
 Optimization of the real space projectors (new method)

[...]

   l    n(q)    QCUT    max X(q) W(low)/X(q) W(high)/X(q)  e(spline)
   0     11    11.376   331.533    0.45E-04    0.10E-03    0.18E-05
   0     11    11.376   348.190    0.46E-04    0.10E-03    0.18E-05
   0     11    11.376     6.927    0.35E-04    0.83E-04    0.16E-05
   1     10    11.376     2.497    0.49E-05    0.43E-05    0.65E-07
   1     10    11.376     2.823    0.91E-05    0.21E-04    0.27E-06
   2     10    11.376    64.269    0.20E-03    0.53E-03    0.84E-06
   2     10    11.376    59.672    0.20E-03    0.54E-03    0.85E-06
   3      9    11.376     4.004    0.24E-03    0.21E-03    0.44E-06
 Optimization of the real space projectors (new method)

 maximal supplied QI-value         = 23.62
 optimisation between [QCUT,QGAM] = [ 11.34, 22.68] = [ 36.00,144.00] Ry
 Optimized for a Real-space Cutoff    1.66 Angstroem

   l    n(q)    QCUT    max X(q) W(low)/X(q) W(high)/X(q)  e(spline)
   0     11    11.338   116.464    0.17E-03    0.30E-03    0.79E-05
   0     11    11.338   116.329    0.16E-03    0.29E-03    0.76E-05
   0     11    11.338     0.942    0.79E-04    0.14E-03    0.33E-05
   1     11    11.338    54.336    0.24E-03    0.89E-03    0.12E-04
   1     11    11.338    48.242    0.24E-03    0.87E-03    0.12E-04
   1     11    11.338     2.381    0.18E-03    0.63E-03    0.86E-05
   2     10    11.338     2.237    0.15E-04    0.16E-04    0.66E-06
   2     10    11.338     2.457    0.37E-04    0.22E-04    0.97E-06
  PAW_PBE H_GW 21Apr2008                :
  PAW_PBE Ir_sv_GW 23Mar2010            :
  PAW_PBE O_GW_new 19Mar2012            :

 POSCAR: Ir36 H6 O78
  positions in direct lattice
  velocities in cartesian coordinates
 exchange correlation table for  LEXCH =        8
   RHO(1)=    0.500       N(1)  =     2000
   RHO(2)=  100.500       N(2)  =     4000

 POSCAR: Ir36 H6 O78
  positions in direct lattice
  velocities in cartesian coordinates

 POSCAR: Ir36 H6 O78
  positions in direct lattice
  velocities in cartesian coordinates

 ion  position               nearest neighbor table
   1  0.911  0.250  0.117- 115 0.98
   2  0.089  0.750  0.482- 116 0.98
   3  0.578  0.250  0.117- 119 0.98
   4  0.422  0.750  0.482- 120 0.98
   5  0.245  0.250  0.117- 117 0.98
   6  0.755  0.750  0.482- 118 0.98
   7  0.165  0.750  0.158-  44 1.97  43 1.97  46 1.97  52 1.97  49 2.02  50 2.02   9 3.18   8 3.18

   8  0.499  0.750  0.158-  45 1.97  44 1.97  47 1.97  53 1.97  50 2.02  51 2.02   7 3.18   9 3.18

[...]

  43  0.998  0.750  0.137-   9 1.97   7 1.97
  44  0.332  0.750  0.137-   7 1.97   8 1.97
  45  0.665  0.750  0.137-   8 1.97   9 1.97
  46  0.165  0.058  0.159-   7 1.97  11 2.00  10 2.01
  47  0.499  0.058  0.159-   8 1.97  12 2.00  11 2.01
  48  0.832  0.058  0.159-   9 1.97  10 2.00  12 2.01
  49  0.999  0.750  0.180-  16 1.97   7 2.02   9 2.02
  50  0.332  0.750  0.180-  17 1.97   8 2.02   7 2.02
  51  0.665  0.750  0.180-  18 1.97   9 2.02   8 2.02
  52  0.165  0.442  0.159-   7 1.97  11 2.00  10 2.01
  53  0.499  0.442  0.159-   8 1.97  12 2.00  11 2.01
  54  0.832  0.442  0.159-   9 1.97  10 2.00  12 2.01
  55  0.999  0.250  0.193-  10 1.99  15 2.00  13 2.01
  56  0.332  0.250  0.193-  11 1.99  13 2.00  14 2.01
  57  0.666  0.250  0.193-  12 1.99  14 2.00  15 2.01
  58  0.166  0.559  0.215-  13 1.98  16 2.01  17 2.01
  59  0.499  0.559  0.215-  14 1.98  17 2.01  18 2.01
  60  0.832  0.559  0.215-  15 1.98  18 2.01  16 2.01
  61  0.999  0.250  0.237-  22 1.97  13 2.00  15 2.01
  62  0.333  0.250  0.237-  23 1.97  14 2.00  13 2.01
  63  0.666  0.250  0.237-  24 1.97  15 2.00  14 2.01
  64  0.166  0.941  0.215-  13 1.98  16 2.01  17 2.01
  65  0.499  0.941  0.215-  14 1.98  17 2.01  18 2.01
  66  0.832  0.941  0.215-  15 1.98  18 2.01  16 2.01
  67  0.000  0.750  0.250-  16 1.98  19 2.01  21 2.01
  68  0.333  0.750  0.250-  17 1.98  20 2.01  19 2.01
  69  0.667  0.750  0.250-  18 1.98  20 2.01  21 2.01
  70  0.167  0.058  0.271-  19 1.97  22 2.01  23 2.01
  71  0.500  0.058  0.271-  20 1.97  23 2.01  24 2.01
  72  0.833  0.058  0.271-  21 1.97  22 2.01  24 2.01
  73  0.000  0.750  0.293-  28 1.97  21 2.01  19 2.01
  74  0.333  0.750  0.293-  29 1.97  20 2.01  19 2.01
  75  0.667  0.750  0.293-  30 1.97  20 2.01  21 2.01
  76  0.167  0.442  0.271-  19 1.97  22 2.01  23 2.01
  77  0.500  0.442  0.271-  20 1.97  24 2.01  23 2.01
  78  0.833  0.442  0.271-  21 1.97  22 2.01  24 2.01
  79  0.000  0.250  0.306-  22 1.97  25 2.01  27 2.01
  80  0.333  0.250  0.306-  23 1.97  26 2.01  25 2.01
  81  0.667  0.250  0.306-  24 1.97  26 2.01  27 2.01
  82  0.167  0.558  0.328-  25 1.97  28 2.01  29 2.01
  83  0.500  0.558  0.328-  26 1.97  29 2.01  30 2.01
  84  0.833  0.558  0.328-  27 1.97  28 2.01  30 2.01
  85  0.000  0.250  0.350-  34 1.98  27 2.01  25 2.01
  86  0.333  0.250  0.350-  35 1.98  26 2.01  25 2.01
  87  0.667  0.250  0.350-  36 1.98  26 2.01  27 2.01
  88  0.167  0.942  0.328-  25 1.97  28 2.01  29 2.01
  89  0.500  0.942  0.328-  26 1.97  30 2.01  29 2.01
  90  0.833  0.942  0.328-  27 1.97  28 2.01  30 2.01
  91  0.001  0.750  0.363-  28 1.97  33 2.00  31 2.01
  92  0.334  0.750  0.363-  29 1.97  31 2.00  32 2.01
  93  0.667  0.750  0.363-  30 1.97  32 2.00  33 2.01
  94  0.168  0.059  0.385-  31 1.98  35 2.01  34 2.01
  95  0.501  0.059  0.385-  32 1.98  36 2.01  35 2.01
  96  0.834  0.059  0.385-  33 1.98  34 2.01  36 2.01
  97  0.001  0.750  0.406-  40 1.99  31 2.00  33 2.01
  98  0.334  0.750  0.406-  41 1.99  32 2.00  31 2.01
  99  0.668  0.750  0.406-  42 1.99  33 2.00  32 2.01
 100  0.168  0.441  0.385-  31 1.98  35 2.01  34 2.01
 101  0.501  0.441  0.385-  32 1.98  36 2.01  35 2.01
 102  0.834  0.441  0.385-  33 1.98  34 2.01  36 2.01
[...]
 106  0.168  0.558  0.441-  37 1.97  40 2.00  41 2.01
 107  0.501  0.558  0.441-  38 1.97  41 2.00  42 2.01
 108  0.835  0.558  0.441-  39 1.97  42 2.00  40 2.01
 109  0.002  0.250  0.462-  37 1.97  39 1.97
 110  0.335  0.250  0.462-  38 1.97  37 1.97
 111  0.668  0.250  0.462-  39 1.97  38 1.97
 112  0.168  0.942  0.441-  37 1.97  40 2.00  41 2.01
 113  0.501  0.942  0.441-  38 1.97  41 2.00  42 2.01
 114  0.835  0.942  0.441-  39 1.97  42 2.00  40 2.01
 115  0.007  0.250  0.124-   1 0.98  10 1.93
 116  0.993  0.750  0.475-   2 0.98  40 1.93
 117  0.340  0.250  0.124-   5 0.98  11 1.93
 118  0.660  0.750  0.475-   6 0.98  42 1.93
 119  0.673  0.250  0.124-   3 0.98  12 1.93
 120  0.327  0.750  0.475-   4 0.98  41 1.93

  LATTYP: Found a simple orthorhombic cell.
 ALAT       =     6.4022918039
 B/A-ratio  =     1.4889259653
 C/A-ratio  =     8.8429110168

  Lattice vectors:

 A1 = (  -0.0000000000,  -6.4022918039,   0.0000000000)
 A2 = (   9.5325385041,   0.0000000000,   0.0000000000)
 A3 = (   0.0000000000,   0.0000000000,  56.6148967251)

Analysis of symmetry for initial positions (statically):
 Subroutine PRICEL returns following result:

[...]

   3 primitive cells build up your supercell.

 Routine SETGRP: Setting up the symmetry group for a
 simple orthorhombic supercell.

 Subroutine GETGRP returns: Found  4 space group operations
 (whereof  1 operations were pure point group operations)
 out of a pool of  8 trial point group operations.

The static configuration has the point symmetry C_1 .
 The point group associated with its full space group is C_2h.

Analysis of symmetry for dynamics (positions and initial velocities):
 Subroutine PRICEL returns following result:

[...]

The dynamic configuration has the point symmetry C_1 .
 The point group associated with its full space group is C_2h.

Analysis of constrained symmetry for selective dynamics:
 Subroutine PRICEL returns following result:

[...]

The constrained configuration has the point symmetry C_1 .
 The point group associated with its full space group is C_2h.

Analysis of structural, dynamic, and magnetic symmetry:
 Subroutine PRICEL returns following result:

  LATTYP: Found a simple orthorhombic cell.
 ALAT       =     3.1775128347
 B/A-ratio  =     2.0148751986
 C/A-ratio  =    17.8173620912

  Lattice vectors:

 A1 = (   3.1775128347,   0.0000000000,   0.0000000000)
 A2 = (   0.0000000000,   6.4022918039,   0.0000000000)
 A3 = (   0.0000000000,   0.0000000000,  56.6148967251)

   3 primitive cells build up your supercell.

 Routine SETGRP: Setting up the symmetry group for a
 simple orthorhombic supercell.

 Subroutine GETGRP returns: Found  4 space group operations
 (whereof  1 operations were pure point group operations)
 out of a pool of  8 trial point group operations.

The overall configuration has the point symmetry C_1 .
 The point group associated with its full space group is C_2h.

[...]
   0.505E+00 -.485E-11 -.284E+04   -.472E+00 -.280E-14 0.284E+04   -.395E-02 -.336E-20 0.979E-02   0.201E-06 -.247E-12 0.675E-02
   0.505E+00 0.681E-11 -.284E+04   -.472E+00 -.201E-12 0.284E+04   -.395E-02 0.245E-20 0.979E-02   0.201E-06 -.260E-12 0.675E-02
   0.488E-01 0.284E-11 -.850E+04   -.333E-01 -.102E-12 0.850E+04   0.182E-02 -.429E-20 -.694E-01   -.303E-05 -.193E-12 0.155E-01
   0.488E-01 -.334E-11 -.850E+04   -.333E-01 -.273E-13 0.850E+04   0.182E-02 0.234E-21 -.694E-01   -.303E-05 -.231E-12 0.155E-01
   0.488E-01 -.263E-11 -.850E+04   -.333E-01 -.238E-12 0.850E+04   0.182E-02 0.171E-20 -.694E-01   -.303E-05 -.241E-12 0.155E-01
   -.817E+00 0.784E-12 -.853E+04   0.823E+00 -.521E-12 0.853E+04   0.180E-01 0.955E-20 -.258E+00   -.660E-06 -.260E-12 0.147E-01
   -.817E+00 -.148E-11 -.853E+04   0.823E+00 -.548E-12 0.853E+04   0.180E-01 0.115E-19 -.258E+00   -.660E-06 -.259E-12 0.147E-01
   -.817E+00 -.164E-11 -.853E+04   0.823E+00 -.369E-12 0.853E+04   0.180E-01 0.472E-21 -.258E+00   -.660E-06 -.251E-12 0.147E-01
   -.333E+00 0.413E-11 -.143E+05   0.338E+00 -.950E-12 0.143E+05   0.783E-02 0.298E-20 -.200E+01   0.165E-05 -.160E-12 0.107E-01
   -.333E+00 -.518E-11 -.143E+05   0.338E+00 -.865E-12 0.143E+05   0.783E-02 -.838E-20 -.200E+01   0.165E-05 -.210E-12 0.107E-01
   -.333E+00 0.171E-10 -.143E+05   0.338E+00 -.909E-12 0.143E+05   0.783E-02 -.125E-19 -.200E+01   0.165E-05 -.170E-12 0.107E-01
   -.240E+01 -.962E-12 -.141E+05   0.247E+01 -.964E-12 0.141E+05   -.662E-01 0.163E-18 -.229E+01   -.108E-04 -.236E-12 0.112E-01
   -.240E+01 -.687E-11 -.141E+05   0.247E+01 -.116E-11 0.141E+05   -.662E-01 -.411E-19 -.229E+01   -.108E-04 -.226E-12 0.112E-01
   -.240E+01 -.788E-11 -.141E+05   0.247E+01 -.892E-12 0.141E+05   -.662E-01 -.462E-19 -.229E+01   -.108E-04 -.219E-12 0.112E-01
   -.544E+00 0.538E-11 0.589E+04   0.632E+00 0.329E-12 -.593E+04   -.773E-01 -.187E-18 0.379E+02   -.994E-06 0.166E-12 -.836E-03
   -.544E+00 0.263E-11 0.589E+04   0.632E+00 0.377E-12 -.593E+04   -.773E-01 0.354E-18 0.379E+02   -.994E-06 0.168E-12 -.836E-03
   -.544E+00 0.132E-11 0.589E+04   0.632E+00 0.299E-12 -.593E+04   -.773E-01 0.299E-18 0.379E+02   -.994E-06 0.177E-12 -.836E-03
   0.465E+00 0.589E+02 0.499E+04   -.961E+00 -.607E+02 -.499E+04   0.501E+00 0.186E+01 -.120E+00   -.518E-06 0.833E-03 -.269E-02
   0.465E+00 0.589E+02 0.499E+04   -.961E+00 -.607E+02 -.499E+04   0.501E+00 0.186E+01 -.120E+00   -.518E-06 0.833E-03 -.269E-02
   0.465E+00 0.589E+02 0.499E+04   -.961E+00 -.607E+02 -.499E+04   0.501E+00 0.186E+01 -.120E+00   -.518E-06 0.833E-03 -.269E-02
   0.477E+00 0.892E-12 0.419E+04   -.524E+00 0.676E-11 -.419E+04   0.571E-01 0.629E-19 0.146E+01   0.426E-06 0.115E-12 -.415E-02
   0.477E+00 0.631E-12 0.419E+04   -.524E+00 -.307E-11 -.419E+04   0.571E-01 0.590E-19 0.146E+01   0.426E-06 0.116E-12 -.415E-02
   0.477E+00 0.377E-11 0.419E+04   -.524E+00 -.303E-11 -.419E+04   0.571E-01 0.613E-19 0.146E+01   0.426E-06 0.117E-12 -.415E-02
   0.465E+00 -.589E+02 0.499E+04   -.961E+00 0.607E+02 -.499E+04   0.501E+00 -.186E+01 -.120E+00   -.518E-06 -.833E-03 -.269E-02
   0.465E+00 -.589E+02 0.499E+04   -.961E+00 0.607E+02 -.499E+04   0.501E+00 -.186E+01 -.120E+00   -.518E-06 -.833E-03 -.269E-02
   0.465E+00 -.589E+02 0.499E+04   -.961E+00 0.607E+02 -.499E+04   0.501E+00 -.186E+01 -.120E+00   -.518E-06 -.833E-03 -.269E-02
   -.985E+00 0.907E-11 0.382E+04   0.112E+01 0.249E-12 -.382E+04   -.128E+00 -.166E-18 0.477E+01   -.202E-05 0.827E-13 -.478E-02
   -.985E+00 0.214E-12 0.382E+04   0.112E+01 0.240E-12 -.382E+04   -.128E+00 -.585E-19 0.477E+01   -.202E-05 0.857E-13 -.478E-02
   -.985E+00 -.480E-11 0.382E+04   0.112E+01 0.344E-12 -.382E+04   -.128E+00 0.203E-18 0.477E+01   -.202E-05 0.845E-13 -.478E-02
   -.327E+00 0.502E+02 0.300E+04   0.375E+00 -.519E+02 -.300E+04   -.305E-01 0.162E+01 -.253E+00   0.414E-06 -.172E-03 -.347E-02
   -.327E+00 0.502E+02 0.300E+04   0.375E+00 -.519E+02 -.300E+04   -.305E-01 0.162E+01 -.253E+00   0.414E-06 -.172E-03 -.347E-02
   -.327E+00 0.502E+02 0.300E+04   0.375E+00 -.519E+02 -.300E+04   -.305E-01 0.162E+01 -.253E+00   0.414E-06 -.172E-03 -.347E-02
[...]
   -.464E+00 0.589E+02 -.499E+04   0.961E+00 -.607E+02 0.499E+04   -.501E+00 0.186E+01 0.120E+00   0.506E-06 0.834E-03 0.393E-02
   -.464E+00 0.589E+02 -.499E+04   0.961E+00 -.607E+02 0.499E+04   -.501E+00 0.186E+01 0.120E+00   0.506E-06 0.834E-03 0.393E-02
   0.544E+00 -.162E-11 -.589E+04   -.632E+00 -.376E-12 0.593E+04   0.773E-01 0.180E-18 -.379E+02   0.100E-05 -.891E-13 0.182E-02
   0.544E+00 -.384E-12 -.589E+04   -.632E+00 -.357E-12 0.593E+04   0.773E-01 -.146E-18 -.379E+02   0.100E-05 -.832E-13 0.182E-02
   0.544E+00 0.548E-11 -.589E+04   -.632E+00 -.363E-11 0.593E+04   0.773E-01 -.297E-18 -.379E+02   0.100E-05 -.928E-13 0.182E-02
   -.464E+00 -.589E+02 -.499E+04   0.961E+00 0.607E+02 0.499E+04   -.501E+00 -.186E+01 0.120E+00   0.506E-06 -.834E-03 0.393E-02
   -.464E+00 -.589E+02 -.499E+04   0.961E+00 0.607E+02 0.499E+04   -.501E+00 -.186E+01 0.120E+00   0.506E-06 -.834E-03 0.393E-02
   -.464E+00 -.589E+02 -.499E+04   0.961E+00 0.607E+02 0.499E+04   -.501E+00 -.186E+01 0.120E+00   0.506E-06 -.834E-03 0.393E-02
   -.329E+02 0.220E-11 0.602E+04   0.758E+02 0.462E-12 -.603E+04   -.429E+02 -.164E-17 0.147E+02   -.581E-04 0.906E-13 0.966E-03
   0.329E+02 -.175E-11 -.602E+04   -.758E+02 -.426E-12 0.603E+04   0.429E+02 -.165E-17 -.147E+02   0.598E-04 -.680E-13 -.149E-03
   -.329E+02 0.304E-11 0.602E+04   0.758E+02 0.352E-12 -.603E+04   -.429E+02 0.166E-17 0.147E+02   -.581E-04 0.954E-13 0.966E-03
   0.329E+02 0.720E-11 -.602E+04   -.758E+02 -.343E-12 0.603E+04   0.429E+02 0.190E-17 -.147E+02   0.598E-04 -.715E-13 -.149E-03
   -.329E+02 0.165E-11 0.602E+04   0.758E+02 0.368E-12 -.603E+04   -.429E+02 0.136E-17 0.147E+02   -.581E-04 0.872E-13 0.966E-03
   0.329E+02 0.129E-10 -.602E+04   -.758E+02 -.381E-12 0.603E+04   0.429E+02 -.187E-17 -.147E+02   0.598E-04 -.769E-13 -.149E-03
   -.213E-02 0.205E-09 -.179E+02   -.711E-13 -.103E-12 -.218E-10   0.711E-14 0.200E-14 -.195E-13   -.658E-05 -.101E-11 0.152E+00

 POSITION                                       TOTAL-FORCE (eV/Angst)
      8.68878      1.60057      6.64488         0.012903     -0.000000     -0.003352
      0.84375      4.80172     27.28718        -0.012903     -0.000000      0.003352
      5.51127      1.60057      6.64488         0.012903     -0.000000     -0.003352
      4.02127      4.80172     27.28718        -0.012903     -0.000000      0.003352
      2.33376      1.60057      6.64488         0.012903     -0.000000     -0.003352
      7.19878      4.80172     27.28718        -0.012903     -0.000000      0.003352
      1.57567      4.80172      8.93954        -0.013332     -0.000000     -0.036318
      4.75318      4.80172      8.93954        -0.013332     -0.000000     -0.036318
      7.93069      4.80172      8.93954        -0.013332     -0.000000     -0.036318
      9.51469      1.60057      8.95490         0.000035     -0.000000      0.007715
      3.15967      1.60057      8.95490         0.000035     -0.000000      0.007715
      6.33718      1.60057      8.95490         0.000035     -0.000000      0.007715
      1.58091      1.60057     12.16843        -0.017380     -0.000000     -0.023234
      4.75842      1.60057     12.16843        -0.017380     -0.000000     -0.023234
      7.93593      1.60057     12.16843        -0.017380     -0.000000     -0.023234
      9.52543      4.80172     12.15329        -0.023731     -0.000000     -0.017564
      3.17041      4.80172     12.15329        -0.023731     -0.000000     -0.017564
      6.34792      4.80172     12.15329        -0.023731     -0.000000     -0.017564
      1.58876      4.80172     15.36550         0.010806     -0.000000      0.003368
      4.76627      4.80172     15.36550         0.010806     -0.000000      0.003368
      7.94378      4.80172     15.36550         0.010806     -0.000000      0.003368
      0.00000      1.60057     15.36550        -0.029227     -0.000000      0.035518
      3.17751      1.60057     15.36550        -0.029227     -0.000000      0.035518
      6.35503      1.60057     15.36550        -0.029227     -0.000000      0.035518
      1.58876      1.60057     18.56665        -0.010806     -0.000000     -0.003368
      4.76627      1.60057     18.56665        -0.010806     -0.000000     -0.003368
      7.94378      1.60057     18.56665        -0.010806     -0.000000     -0.003368
      0.00000      4.80172     18.56665         0.029227     -0.000000     -0.035518
      3.17751      4.80172     18.56665         0.029227     -0.000000     -0.035518
      6.35503      4.80172     18.56665         0.029227     -0.000000     -0.035518
      1.59660      4.80172     21.76371         0.017380     -0.000000      0.023234
      4.77412      4.80172     21.76371         0.017380     -0.000000      0.023234
      7.95163      4.80172     21.76371         0.017380     -0.000000      0.023234
      0.00711      1.60057     21.77886         0.023731     -0.000000      0.017564
      3.18462      1.60057     21.77886         0.023731     -0.000000      0.017564
      6.36213      1.60057     21.77886         0.023731     -0.000000      0.017564
      1.60185      1.60057     24.99261         0.013332     -0.000000      0.036318
      4.77936      1.60057     24.99261         0.013332     -0.000000      0.036318
      7.95687      1.60057     24.99261         0.013332     -0.000000      0.036318
      0.01785      4.80172     24.97724        -0.000035     -0.000000     -0.007715
      3.19536      4.80172     24.97724        -0.000035     -0.000000     -0.007715
      6.37287      4.80172     24.97724        -0.000035     -0.000000     -0.007715
      9.51793      4.80172      7.77305         0.010772     -0.000000     -0.004195
      3.16290      4.80172      7.77305         0.010772     -0.000000     -0.004195
      6.34041      4.80172      7.77305         0.010772     -0.000000     -0.004195
      1.57461      0.37349      8.97567         0.004358     -0.000330      0.007280
      4.75213      0.37349      8.97567         0.004358     -0.000330      0.007280
      7.92964      0.37349      8.97567         0.004358     -0.000330      0.007280
      9.51979      4.80172     10.18292         0.010335     -0.000000      0.042152
      3.16477      4.80172     10.18292         0.010335     -0.000000      0.042152
      6.34228      4.80172     10.18292         0.010335     -0.000000      0.042152
      1.57461      2.82765      8.97567         0.004358      0.000330      0.007280
      4.75213      2.82765      8.97567         0.004358      0.000330      0.007280
      7.92964      2.82765      8.97567         0.004358      0.000330      0.007280
      9.52341      1.60057     10.94574         0.004050     -0.000000     -0.012769
      3.16838      1.60057     10.94574         0.004050     -0.000000     -0.012769
      6.34590      1.60057     10.94574         0.004050     -0.000000     -0.012769
      1.58072      3.57654     12.16347         0.017643     -0.018271      0.000292
      4.75824      3.57654     12.16347         0.017643     -0.018271      0.000292
      7.93575      3.57654     12.16347         0.017643     -0.018271      0.000292
[...]
      1.60290      3.57464     24.95647        -0.004358     -0.000330     -0.007280
      4.78041      3.57464     24.95647        -0.004358     -0.000330     -0.007280
      7.95792      3.57464     24.95647        -0.004358     -0.000330     -0.007280
      0.01461      1.60057     26.15910        -0.010772     -0.000000      0.004195
      3.19212      1.60057     26.15910        -0.010772     -0.000000      0.004195
      6.36964      1.60057     26.15910        -0.010772     -0.000000      0.004195
      1.60290      6.02880     24.95647        -0.004358      0.000330     -0.007280
      4.78041      6.02880     24.95647        -0.004358      0.000330     -0.007280
      7.95792      6.02880     24.95647        -0.004358      0.000330     -0.007280
      0.06227      1.60057      7.02396         0.001897     -0.000000     -0.028002
      9.47027      4.80172     26.90809        -0.001897     -0.000000      0.028002
      3.23978      1.60057      7.02396         0.001897     -0.000000     -0.028002
      6.29276      4.80172     26.90809        -0.001897     -0.000000      0.028002
      6.41730      1.60057      7.02396         0.001897     -0.000000     -0.028002
      3.11524      4.80172     26.90809        -0.001897     -0.000000      0.028002
    total drift:                               -0.002141      0.000000    -17.757476

  FREE ENERGIE OF THE ION-ELECTRON SYSTEM (eV)
  free  energy   TOTEN  =      -841.90737442 eV

  energy  without entropy=     -841.82614428  energy(sigma->0) =     -841.86675935

 total charge

[...]

 magnetization (x)

# of ion       s       p       d       f       tot
    1       -0.001   0.001  -0.000   0.000   0.000
    2       -0.001   0.001  -0.000   0.000   0.000
    3       -0.001   0.001  -0.000   0.000   0.000
    4       -0.001   0.001  -0.000   0.000   0.000
    5       -0.001   0.001  -0.000   0.000   0.000
    6       -0.001   0.001  -0.000   0.000   0.000
    7       -0.001  -0.000  -0.012  -0.000  -0.013
    8       -0.001  -0.000  -0.012  -0.000  -0.013
    9       -0.001  -0.000  -0.012  -0.000  -0.013
   10        0.003   0.000   0.077   0.000   0.081
   11        0.003   0.000   0.077   0.000   0.081
   12        0.003   0.000   0.077   0.000   0.081
   13       -0.001  -0.000  -0.009   0.000  -0.009
   14       -0.001  -0.000  -0.009   0.000  -0.009
   15       -0.001  -0.000  -0.009   0.000  -0.009
   16        0.000   0.000   0.007  -0.000   0.007
   17        0.000   0.000   0.007  -0.000   0.007
   18        0.000   0.000   0.007  -0.000   0.007
   19        0.000   0.000   0.015   0.000   0.016
   20        0.000   0.000   0.015   0.000   0.016
   21        0.000   0.000   0.015   0.000   0.016
   22       -0.000   0.000  -0.007   0.000  -0.007
   23       -0.000   0.000  -0.007   0.000  -0.007
   24       -0.000   0.000  -0.007   0.000  -0.007
   25        0.000   0.000   0.015   0.000   0.016
   26        0.000   0.000   0.015   0.000   0.016
   27        0.000   0.000   0.015   0.000   0.016
   28       -0.000   0.000  -0.007   0.000  -0.007
   29       -0.000   0.000  -0.007   0.000  -0.007
   30       -0.000   0.000  -0.007   0.000  -0.007
   31       -0.001  -0.000  -0.009   0.000  -0.009
   32       -0.001  -0.000  -0.009   0.000  -0.009
   33       -0.001  -0.000  -0.009   0.000  -0.009
   34        0.000   0.000   0.007  -0.000   0.007
   35        0.000   0.000   0.007  -0.000   0.007
   36        0.000   0.000   0.007  -0.000   0.007
   37       -0.001  -0.000  -0.012  -0.000  -0.013
   38       -0.001  -0.000  -0.012  -0.000  -0.013
   39       -0.001  -0.000  -0.012  -0.000  -0.013
   40        0.003   0.000   0.077   0.000   0.081
   41        0.003   0.000   0.077   0.000   0.081
   42        0.003   0.000   0.077   0.000   0.081
   43        0.000  -0.002  -0.000   0.000  -0.002
   44        0.000  -0.002  -0.000   0.000  -0.002
   45        0.000  -0.002  -0.000   0.000  -0.002
   46       -0.000   0.002   0.000   0.000   0.002
   47       -0.000   0.002   0.000   0.000   0.002
   48       -0.000   0.002   0.000   0.000   0.002
   49        0.000   0.002  -0.000   0.000   0.002
   50        0.000   0.002  -0.000   0.000   0.002
   51        0.000   0.002  -0.000   0.000   0.002
   52       -0.000   0.002   0.000   0.000   0.002
   53       -0.000   0.002   0.000   0.000   0.002
   54       -0.000   0.002   0.000   0.000   0.002
   55        0.000   0.018   0.000   0.000   0.018
   56        0.000   0.018   0.000   0.000   0.018
   57        0.000   0.018   0.000   0.000   0.018
   58       -0.000  -0.002  -0.000   0.000  -0.002
   59       -0.000  -0.002  -0.000   0.000  -0.002
   60       -0.000  -0.002  -0.000   0.000  -0.002
[...]
  106       -0.000   0.002   0.000   0.000   0.002
  107       -0.000   0.002   0.000   0.000   0.002
  108       -0.000   0.002   0.000   0.000   0.002
  109        0.000  -0.002  -0.000   0.000  -0.002
  110        0.000  -0.002  -0.000   0.000  -0.002
  111        0.000  -0.002  -0.000   0.000  -0.002
  112       -0.000   0.002   0.000   0.000   0.002
  113       -0.000   0.002   0.000   0.000   0.002
  114       -0.000   0.002   0.000   0.000   0.002
  115        0.001   0.040   0.000   0.000   0.041
  116        0.001   0.040   0.000   0.000   0.041
  117        0.001   0.040   0.000   0.000   0.041
  118        0.001   0.040   0.000   0.000   0.041
  119        0.001   0.040   0.000   0.000   0.041
  120        0.001   0.040   0.000   0.000   0.041
tot          0.016   0.364   0.432   0.000   0.813